0 1
0 9999
0 2
0 9998
0 3
0 9997
0 4
0 820
1 2
1 3
1 9999
1 4
1 9998
1 5
1 9997
2 3
2 4
2 5
2 9999
2 6
2 9998
2 8812
3 4
3 5
3 9999
3 110
3 6842
4 5
4 6
4 7
4 8
5 6
5 8
5 9
5 2280
5 381
6 7
6 8
6 9
6 10
7 8
7 9
7 10
7 11
8 9
8 10
8 12
8 576
8 7819
9 10
9 11
9 12
9 13
9 5168
10 11
10 12
10 13
10 14
11 12
11 13
11 14
11 15
12 13
12 14
12 15
12 16
12 2010
12 594
13 14
13 15
13 16
13 17
14 15
14 16
14 17
14 18
15 16
15 17
15 18
15 19
16 17
16 18
16 19
16 20
16 1683
17 18
17 19
17 20
17 21
17 7292
18 19
18 20
18 21
18 22
19 20
19 21
19 23
19 7661
19 4450
20 21
20 23
20 24
20 4431
20 6077
20 3459
21 22
21 23
21 24
21 25
22 23
22 24
22 25
22 26
22 2813
23 24
23 25
23 26
23 27
24 25
24 26
24 27
24 28
25 26
25 27
25 28
25 29
26 27
26 28
26 30
26 2301
26 2018
27 28
27 29
27 31
27 5806
27 7222
28 29
28 30
28 31
28 32
28 4278
28 3179
29 31
29 32
29 33
29 2416
30 31
30 32
30 33
30 34
31 32
31 34
31 35
31 7029
32 33
32 34
32 35
32 36
33 34
33 35
33 36
33 367
34 35
34 36
34 37
34 38
35 36
35 37
35 38
35 39
36 37
36 38
36 39
36 40
37 38
37 39
37 40
37 41
38 39
38 40
38 41
38 42
39 40
39 41
39 42
39 43
39 1145
40 41
40 42
40 43
40 44
40 467
41 42
41 45
41 1122
41 9970
41 3365
41 6507
41 2755
42 43
42 44
42 45
42 46
43 44
43 45
43 46
43 47
43 2285
44 45
44 46
44 47
44 48
44 8496
45 46
45 47
45 48
45 49
46 47
46 48
46 49
46 50
47 48
47 49
47 50
47 51
48 49
48 50
48 51
48 52
49 50
49 51
49 52
49 53
49 756
50 51
50 53
50 54
50 7591
50 6690
51 52
51 53
51 55
51 9669
52 53
52 54
52 55
52 56
52 6488
53 54
53 55
53 56
53 57
54 55
54 57
54 58
54 423
54 3186
54 7706
55 56
55 57
55 58
55 59
55 1143
55 3874
55 1365
56 57
56 58
56 59
56 60
56 5337
57 58
57 59
57 60
57 7671
58 59
58 60
58 61
58 62
59 60
59 61
59 62
59 63
60 61
60 62
60 63
60 64
61 62
61 63
61 64
61 65
62 63
62 64
62 65
62 66
63 65
63 66
63 4029
63 683
64 65
64 66
64 67
64 68
64 7608
65 66
65 67
65 68
65 2326
66 67
66 68
66 69
66 70
67 68
67 69
67 70
67 71
67 6095
68 69
68 70
68 71
68 72
69 70
69 71
69 72
69 73
70 71
70 72
70 73
70 74
71 72
71 74
71 6988
71 3246
71 8712
71 3487
72 73
72 74
72 75
72 76
73 74
73 75
73 76
73 77
74 75
74 76
74 77
74 78
74 7208
75 76
75 77
75 78
75 79
76 77
76 78
76 79
76 80
76 3205
76 5404
77 78
77 79
77 80
77 81
78 79
78 80
78 81
78 82
79 80
79 81
79 82
79 83
80 81
80 82
80 83
80 84
81 82
81 84
81 85
81 9578
82 83
82 84
82 85
82 86
82 9522
83 84
83 85
83 86
83 87
84 85
84 86
84 87
84 88
85 86
85 87
85 88
85 89
86 87
86 88
86 89
86 90
86 7263
87 89
87 90
87 91
87 2249
87 782
87 7709
88 89
88 90
88 91
88 349
89 90
89 91
89 92
89 5965
90 91
90 92
90 94
90 9171
91 92
91 93
91 94
91 95
92 93
92 94
92 95
92 96
93 94
93 95
93 96
93 97
94 95
94 97
94 2249
94 5739
95 96
95 97
95 98
95 99
96 97
96 98
96 99
96 100
96 5645
97 98
97 99
97 100
97 101
98 99
98 100
98 101
98 102
98 7145
99 100
99 101
99 103
99 4745
100 101
100 102
100 103
100 8655
101 102
101 103
101 104
101 105
102 103
102 104
102 105
102 106
103 104
103 105
103 106
103 107
104 106
104 107
104 108
104 3276
105 106
105 107
105 109
105 4367
106 107
106 108
106 109
106 110
106 4623
107 108
107 109
107 110
107 111
108 109
108 110
108 111
108 112
108 7765
109 110
109 111
109 112
109 113
110 111
110 112
110 113
110 114
110 7099
111 112
111 113
111 114
111 115
111 9187
112 114
112 116
112 8232
112 8106
113 114
113 115
113 116
113 2986
114 115
114 117
114 118
114 8432
115 116
115 117
115 118
115 119
115 5924
115 8904
116 117
116 118
116 120
116 5837
116 8525
117 118
117 119
117 120
117 121
118 119
118 120
118 121
118 122
119 120
119 121
119 122
119 123
120 122
120 123
120 124
120 9507
120 4153
121 122
121 123
121 124
121 125
122 123
122 124
122 125
122 126
122 6136
123 124
123 125
123 126
123 127
124 125
124 126
124 127
124 128
125 126
125 127
125 128
125 129
126 128
126 129
126 130
126 4964
127 128
127 129
127 130
127 131
128 129
128 130
128 131
128 132
128 6810
129 131
129 132
129 133
129 2941
130 131
130 132
130 133
130 134
131 132
131 133
131 134
131 135
132 133
132 134
132 136
132 1000
133 134
133 135
133 136
133 137
134 135
134 136
134 137
134 138
135 136
135 137
135 138
135 746
136 137
136 138
136 139
136 140
137 138
137 139
137 140
137 2310
138 139
138 140
138 141
138 142
139 141
139 142
139 143
139 4265
140 141
140 142
140 143
140 144
140 8624
141 142
141 143
141 144
141 145
141 9684
142 143
142 144
142 145
142 146
142 8987
143 144
143 145
143 146
143 147
144 145
144 146
144 147
144 148
144 1457
145 146
145 147
145 4186
145 2694
146 147
146 148
146 149
146 150
146 4452
147 149
147 150
147 151
147 3890
148 149
148 150
148 151
148 152
149 150
149 151
149 152
149 153
150 151
150 152
150 153
150 8224
151 153
151 154
151 155
151 4582
151 8917
152 153
152 154
152 155
152 5973
153 154
153 155
153 156
153 157
154 155
154 156
154 157
154 158
155 156
155 157
155 158
155 159
156 157
156 158
156 159
156 160
157 159
157 160
157 161
157 1180
157 405
157 6294
158 159
158 160
158 161
158 162
158 3020
159 160
159 161
159 162
159 163
160 161
160 162
160 163
160 164
160 9694
161 162
161 163
161 164
161 165
161 2594
162 163
162 164
162 165
162 166
163 164
163 166
163 167
163 7434
163 8264
164 165
164 166
164 167
164 168
164 8930
165 166
165 168
165 169
165 4254
166 168
166 169
166 170
166 6514
167 168
167 169
167 170
167 171
167 8136
168 169
168 170
168 171
168 172
169 170
169 172
169 173
169 8545
170 171
170 172
170 173
170 174
170 1590
171 172
171 173
171 174
171 175
172 173
172 175
172 176
172 5187
173 174
173 175
173 176
173 177
174 175
174 176
174 177
174 178
175 176
175 177
175 178
175 179
175 2745
176 177
176 178
176 179
176 180
177 178
177 180
177 181
177 3023
178 179
178 180
178 181
178 182
179 180
179 181
179 182
179 183
180 181
180 182
180 183
180 5463
181 182
181 183
181 184
181 185
182 183
182 184
182 185
182 186
183 186
183 187
183 4145
183 8155
184 185
184 187
184 188
184 3695
185 186
185 187
185 188
185 189
186 187
186 188
186 189
186 190
186 1050
187 188
187 190
187 191
187 5316
188 189
188 191
188 192
188 4398
188 9689
189 190
189 191
189 192
189 193
189 3190
190 191
190 192
190 194
190 4685
190 1503
191 192
191 193
191 194
191 195
192 193
192 194
192 195
192 196
193 194
193 195
193 196
193 197
194 195
194 196
194 197
194 198
194 4167
195 196
195 197
195 198
195 199
196 197
196 199
196 200
196 5690
197 198
197 199
197 200
197 201
198 199
198 201
198 202
198 7412
199 200
199 201
199 202
199 203
200 201
200 202
200 203
200 204
200 3154
201 202
201 203
201 204
201 205
202 203
202 204
202 205
202 206
202 7291
203 204
203 205
203 206
203 207
203 4274
204 205
204 206
204 208
204 7360
204 9318
205 206
205 207
205 208
205 209
205 5994
206 207
206 208
206 209
206 6335
207 208
207 209
207 210
207 211
207 3211
208 209
208 210
208 211
208 212
209 210
209 211
209 212
209 213
209 9212
210 211
210 212
210 213
210 214
210 4769
211 212
211 213
211 214
211 215
212 213
212 214
212 215
212 216
213 214
213 215
213 216
213 217
214 215
214 216
214 218
214 9386
214 6142
215 216
215 218
215 762
215 8505
216 217
216 218
216 219
216 7973
217 218
217 219
217 220
217 2843
217 1194
218 219
218 220
218 221
218 222
219 220
219 221
219 222
219 223
220 221
220 222
220 223
220 224
220 3350
221 222
221 223
221 224
221 225
221 704
221 4169
222 223
222 224
222 225
222 226
223 224
223 225
223 226
223 227
224 225
224 226
224 227
224 228
225 227
225 228
225 229
225 5075
226 227
226 228
226 229
226 230
227 228
227 229
227 230
227 231
228 229
228 230
228 231
228 232
228 7169
229 231
229 232
229 233
229 3609
229 1174
230 232
230 233
230 234
230 4282
231 232
231 233
231 234
231 235
232 233
232 234
232 235
232 236
233 234
233 235
233 236
233 237
234 235
234 236
234 237
234 238
235 236
235 237
235 238
235 239
236 237
236 238
236 239
236 240
237 238
237 239
237 240
237 241
237 2169
237 552
238 239
238 240
238 241
238 242
239 240
239 241
239 242
239 243
240 241
240 242
240 243
240 244
241 242
241 244
241 245
241 8731
242 243
242 245
242 246
242 7654
243 244
243 245
243 246
243 247
244 245
244 246
244 247
244 248
245 246
245 247
245 248
245 3474
245 9244
245 9258
246 247
246 248
246 249
246 250
247 248
247 249
247 250
247 251
248 249
248 250
248 252
248 9948
249 250
249 252
249 253
249 7838
250 251
250 253
250 254
250 4300
251 252
251 253
251 254
251 255
252 255
252 256
252 6984
252 8616
252 9704
253 254
253 255
253 256
253 7944
253 4136
254 255
254 256
254 257
254 258
255 256
255 257
255 258
255 259
256 257
256 258
256 259
256 260
257 258
257 259
257 260
257 261
258 259
258 260
258 261
258 262
259 261
259 262
259 263
259 7567
260 261
260 262
260 263
260 264
260 2540
261 262
261 263
261 264
261 265
262 263
262 264
262 265
262 266
263 264
263 265
263 266
263 267
264 265
264 266
264 267
264 268
264 1482
265 266
265 267
265 268
265 269
266 267
266 268
266 269
266 270
267 268
267 269
267 271
267 5888
268 269
268 270
268 271
268 272
268 7657
269 270
269 271
269 272
269 273
270 271
270 272
270 273
270 274
271 272
271 274
271 275
271 6545
271 6015
272 273
272 274
272 275
272 276
273 274
273 275
273 276
273 277
274 275
274 276
274 277
274 278
274 2530
275 276
275 277
275 278
275 279
276 277
276 278
276 279
276 280
276 1142
276 3276
276 7256
277 278
277 279
277 280
277 281
278 280
278 281
278 282
278 1778
279 280
279 281
279 282
279 283
279 7097
279 8557
280 281
280 282
280 283
280 3364
280 9726
280 853
281 282
281 283
281 4513
281 9388
282 283
282 285
282 286
282 9745
282 7577
283 284
283 285
283 286
283 287
284 285
284 286
284 287
284 288
284 6854
285 287
285 288
285 289
285 8516
286 287
286 288
286 289
286 290
286 9661
287 288
287 289
287 290
287 291
287 2607
288 289
288 290
288 291
288 292
289 290
289 291
289 292
289 293
290 291
290 292
290 293
290 294
290 2428
291 292
291 293
291 294
291 295
292 293
292 294
292 296
292 2028
293 294
293 296
293 297
293 5995
294 295
294 296
294 4444
294 3088
294 4669
295 296
295 297
295 298
295 299
296 297
296 300
296 9537
296 9505
297 298
297 300
297 301
297 4369
298 299
298 301
298 302
298 4554
298 2398
299 301
299 302
299 303
299 9934
300 302
300 303
300 304
300 3549
301 302
301 303
301 304
301 2236
301 9936
302 303
302 304
302 306
302 2382
302 1740
303 304
303 305
303 306
303 307
304 305
304 306
304 307
304 308
304 6003
305 306
305 307
305 309
305 924
305 383
306 307
306 308
306 309
306 310
307 309
307 310
307 311
307 2221
308 309
308 310
308 312
308 3625
309 310
309 311
309 312
309 313
309 4599
310 311
310 312
310 313
310 314
311 312
311 313
311 314
311 315
311 7441
312 313
312 314
312 315
312 7773
313 314
313 315
313 316
313 8392
314 315
314 316
314 317
314 318
314 3531
315 316
315 317
315 318
315 319
315 8564
315 9693
315 1666
316 317
316 318
316 319
316 320
317 318
317 319
317 320
317 321
318 320
318 321
318 322
318 7529
319 320
319 321
319 322
319 323
320 321
320 322
320 323
320 324
321 323
321 325
321 8185
321 4482
321 5141
322 324
322 325
322 326
322 4390
323 324
323 325
323 326
323 327
324 325
324 326
324 327
324 328
325 326
325 327
325 328
325 329
326 327
326 329
326 330
326 3411
327 328
327 329
327 330
327 331
328 329
328 330
328 331
328 332
329 331
329 332
329 333
329 5037
330 331
330 332
330 333
330 334
331 332
331 333
331 334
331 335
332 333
332 334
332 335
332 336
332 1119
333 334
333 335
333 336
333 337
333 1838
334 335
334 336
334 337
334 338
334 6993
335 336
335 337
335 338
335 339
335 4636
335 6439
336 337
336 338
336 339
336 340
337 338
337 339
337 340
337 341
338 340
338 341
338 756
338 8604
338 5934
338 1451
339 340
339 341
339 342
339 343
339 7383
340 342
340 343
340 344
340 5307
340 4389
340 5319
340 3149
341 343
341 344
341 345
341 1700
342 343
342 344
342 345
342 346
343 344
343 346
343 347
343 7456
344 346
344 347
344 348
344 4495
345 346
345 349
345 5997
345 4700
345 5319
346 347
346 348
346 349
346 350
346 6998
347 348
347 349
347 350
347 351
348 349
348 351
348 8119
348 2557
349 350
349 351
349 352
349 353
350 352
350 353
350 354
350 9540
350 7578
351 352
351 353
351 354
351 355
352 353
352 354
352 355
352 356
353 354
353 355
353 356
353 357
354 355
354 356
354 357
354 358
354 436
355 356
355 357
355 358
355 359
356 358
356 359
356 360
356 1482
357 358
357 359
357 360
357 361
357 8159
358 359
358 360
358 361
358 362
358 6837
358 6757
359 360
359 361
359 362
359 363
360 361
360 362
360 363
360 364
361 362
361 363
361 364
361 365
362 364
362 365
362 366
362 4337
363 364
363 365
363 366
363 367
364 365
364 366
364 367
364 4552
364 1336
364 4229
365 366
365 367
365 368
365 7986
366 367
366 368
366 369
366 370
367 369
367 370
367 371
367 3545
368 369
368 370
368 372
368 5835
368 1983
369 371
369 372
369 373
369 1975
370 371
370 372
370 373
370 374
370 3906
371 372
371 373
371 375
371 3713
372 373
372 374
372 376
372 8390
373 374
373 375
373 376
373 377
373 4239
374 376
374 378
374 1956
374 1313
375 376
375 377
375 379
375 817
376 377
376 378
376 379
376 380
377 378
377 379
377 380
377 381
378 379
378 380
378 381
378 382
378 8918
379 380
379 381
379 382
379 383
380 381
380 382
380 383
380 384
381 382
381 384
381 385
382 383
382 384
382 385
382 386
382 8991
383 384
383 385
383 387
383 6001
384 386
384 387
384 388
384 870
385 386
385 388
385 389
385 4999
386 387
386 388
386 389
386 390
387 389
387 390
387 391
387 7521
387 7607
388 389
388 390
388 391
388 392
389 390
389 391
389 392
389 393
389 7772
390 391
390 392
390 393
390 394
391 392
391 393
391 395
391 6253
391 7333
391 4377
392 393
392 394
392 395
392 396
393 394
393 395
393 396
393 4261
393 9801
394 395
394 396
394 397
394 398
395 396
395 397
395 398
395 399
395 8209
396 397
396 398
396 399
396 400
397 398
397 399
397 400
397 401
398 399
398 400
398 401
398 402
399 400
399 401
399 403
399 6564
400 401
400 402
400 403
400 404
401 403
401 404
401 405
401 1893
402 403
402 404
402 405
402 406
403 404
403 405
403 406
403 407
404 405
404 406
404 407
404 408
405 407
405 408
405 409
405 1289
406 407
406 408
406 409
406 410
407 408
407 409
407 410
407 411
408 409
408 410
408 411
408 412
409 410
409 411
409 412
409 413
409 9493
410 411
410 412
410 413
410 414
410 7985
411 412
411 413
411 414
411 415
411 429
412 413
412 414
412 416
412 3744
413 414
413 415
413 416
413 417
414 416
414 418
414 4392
414 9183
415 416
415 417
415 418
415 419
415 4033
416 417
416 418
416 419
416 420
416 5035
417 418
417 419
417 420
417 421
418 419
418 420
418 421
418 422
419 420
419 422
419 423
419 7987
420 421
420 422
420 423
420 424
421 422
421 423
421 424
421 425
422 423
422 425
422 426
422 9777
423 424
423 425
423 426
423 427
424 425
424 426
424 427
424 428
424 7461
425 426
425 428
425 429
425 3650
426 427
426 428
426 429
426 430
427 428
427 429
427 430
427 431
427 3411
428 429
428 431
428 432
428 5318
429 430
429 431
429 432
430 431
430 432
430 433
430 434
430 6053
431 432
431 433
431 434
431 435
431 8244
432 433
432 434
432 435
432 436
433 434
433 435
433 437
433 8184
433 7555
434 435
434 436
434 437
434 438
434 7774
435 436
435 437
435 438
435 439
435 5958
436 437
436 438
436 439
437 438
437 439
437 441
437 5475
437 6503
438 439
438 440
438 441
438 442
438 7436
439 440
439 441
439 442
439 7973
440 441
440 442
440 443
440 444
441 442
441 443
441 444
441 445
441 9599
442 443
442 444
442 445
442 8486
442 2874
443 444
443 445
443 446
443 447
443 580
444 445
444 446
444 448
444 6653
444 6484
445 446
445 447
445 448
445 449
446 447
446 448
446 449
446 450
446 825
447 448
447 449
447 450
447 451
448 449
448 450
448 451
448 452
448 5816
449 450
449 451
449 452
449 453
450 451
450 452
450 453
450 454
450 6570
451 452
451 453
451 454
451 455
452 453
452 454
452 455
452 456
452 4247
452 2100
453 454
453 456
453 457
453 4538
453 6316
454 455
454 456
454 457
454 458
455 456
455 457
455 7624
455 1526
456 458
456 459
456 460
456 4729
457 459
457 460
457 461
457 645
458 459
458 460
458 461
458 462
459 460
459 461
459 462
459 463
460 461
460 462
460 464
460 9903
460 750
461 462
461 463
461 464
461 465
462 463
462 464
462 465
462 466
463 465
463 467
463 2501
463 3536
464 465
464 466
464 467
464 9063
465 466
465 468
465 469
465 7578
466 467
466 468
466 469
466 470
466 7239
467 469
467 471
467 4334
467 6546
467 7068
468 469
468 470
468 471
468 472
469 470
469 472
469 473
469 3316
470 471
470 472
470 473
470 474
471 473
471 474
471 475
471 2478
472 473
472 474
472 475
472 476
472 5499
473 474
473 475
473 476
473 477
473 6934
474 475
474 476
474 477
474 8382
475 476
475 478
475 479
475 5026
476 477
476 478
476 479
476 6854
477 478
477 479
477 480
477 481
477 2886
478 479
478 480
478 481
478 482
479 480
479 482
479 483
479 5061
480 481
480 482
480 483
480 484
481 482
481 483
481 484
481 485
482 483
482 484
482 485
482 486
483 484
483 485
483 486
483 487
484 485
484 486
484 487
484 488
485 486
485 487
485 488
485 489
486 488
486 490
486 9880
486 8996
487 488
487 489
487 490
487 491
487 8795
488 489
488 490
488 492
488 6157
489 490
489 491
489 492
489 493
489 7377
490 491
490 492
490 493
490 494
490 4751
491 492
491 493
491 494
491 495
492 493
492 494
492 496
492 4352
492 3878
493 494
493 495
493 496
493 497
494 495
494 496
494 497
494 498
494 5655
495 496
495 497
495 498
495 499
496 497
496 500
496 3504
496 6120
497 498
497 499
497 500
497 9011
498 499
498 500
498 501
498 502
499 500
499 501
499 502
499 503
499 2016
500 501
500 502
500 503
500 504
501 502
501 503
501 504
501 505
502 503
502 504
502 505
502 506
503 504
503 505
503 506
503 507
504 505
504 506
504 507
504 508
505 506
505 507
505 508
505 1298
505 4195
506 508
506 509
506 510
506 4879
506 8392
507 508
507 510
507 511
507 547
508 509
508 510
508 511
508 512
509 510
509 511
509 512
509 513
510 511
510 512
510 513
510 514
510 5259
511 512
511 513
511 514
511 515
511 5382
512 513
512 514
512 515
512 516
512 8871
513 514
513 515
513 516
513 517
514 515
514 517
514 518
514 599
514 5173
515 516
515 517
515 519
515 8299
516 517
516 518
516 519
516 520
516 9539
517 518
517 519
517 520
517 521
518 519
518 520
518 521
518 522
518 9543
518 7993
519 520
519 521
519 522
519 523
519 7667
520 521
520 522
520 523
520 524
521 522
521 523
521 524
521 525
521 1605
521 3636
522 523
522 524
522 525
522 526
523 524
523 525
523 526
523 527
524 525
524 526
524 527
524 528
525 526
525 527
525 528
525 529
526 527
526 528
526 529
526 530
527 528
527 529
527 530
527 531
528 529
528 530
528 531
528 532
529 530
529 532
529 533
529 3843
529 3130
529 2559
529 8018
529 6996
530 533
530 534
530 2748
530 8281
530 6192
531 532
531 533
531 534
531 535
531 7239
532 533
532 534
532 536
532 4161
533 534
533 535
533 536
533 537
533 5561
534 535
534 536
534 537
534 538
535 536
535 537
535 538
535 539
535 3212
536 537
536 538
536 539
536 540
537 538
537 539
537 540
537 5339
538 539
538 540
538 541
538 542
538 9165
539 540
539 542
539 7175
539 9973
540 541
540 542
540 543
540 544
541 542
541 543
541 544
541 545
542 544
542 545
542 546
542 2395
543 544
543 545
543 546
543 547
543 1190
543 1336
543 4609
544 546
544 547
544 548
544 8070
544 3965
545 546
545 547
545 548
545 549
545 4199
546 547
546 548
546 549
546 7658
547 550
547 551
547 5774
547 6643
547 1228
548 549
548 550
548 551
548 552
548 1809
549 550
549 552
549 553
549 9903
550 551
550 552
550 553
550 554
551 552
551 553
551 554
551 555
552 555
552 556
552 8878
552 7888
553 554
553 555
553 556
553 557
554 555
554 556
554 557
554 558
554 1737
555 556
555 557
555 559
555 3046
556 558
556 560
556 5583
556 3798
557 558
557 559
557 560
557 561
558 559
558 560
558 561
558 562
559 560
559 561
559 562
559 5771
560 561
560 562
560 563
560 564
561 562
561 563
561 564
561 565
562 564
562 565
562 566
562 9168
563 564
563 565
563 566
563 5367
563 8282
563 4137
564 565
564 566
564 567
564 568
564 2364
565 567
565 568
565 569
565 5025
566 567
566 568
566 569
566 570
566 8757
567 568
567 569
567 570
567 571
568 569
568 571
568 572
568 1189
569 570
569 571
569 572
569 573
569 7638
569 4962
570 571
570 572
570 573
570 574
571 572
571 574
571 575
571 8738
572 575
572 576
572 4792
572 2303
573 574
573 576
573 9476
573 2777
574 575
574 576
574 577
574 578
575 576
575 577
575 578
575 1584
575 1787
575 6967
576 579
576 580
576 1683
577 578
577 579
577 580
577 3742
578 580
578 581
578 582
578 7556
579 580
579 581
579 582
579 583
580 582
580 583
580 9952
581 582
581 583
581 585
581 4944
582 583
582 584
582 585
582 586
583 584
583 585
583 586
583 587
584 585
584 586
584 587
584 588
585 586
585 587
585 589
585 8563
586 587
586 588
586 589
586 590
587 588
587 589
587 590
587 591
588 589
588 590
588 591
588 592
589 591
589 592
589 593
589 5568
590 591
590 592
590 594
590 3201
590 6783
591 592
591 593
591 594
591 595
591 4096
592 594
592 595
592 1641
592 4810
592 2629
592 3525
593 595
593 596
593 597
593 1189
593 7447
594 595
594 596
594 597
595 596
595 597
595 598
595 599
596 597
596 598
596 599
596 600
596 8437
597 598
597 599
597 600
597 601
597 1094
598 599
598 601
598 602
598 3639
599 601
599 602
599 603
600 601
600 602
600 603
600 2015
601 602
601 603
601 604
601 3941
602 603
602 604
602 605
602 606
602 2824
603 604
603 605
603 606
603 607
604 605
604 606
604 607
604 608
605 606
605 2487
605 9123
605 1974
606 607
606 608
606 609
606 610
606 646
607 608
607 609
607 610
607 611
608 610
608 611
608 612
608 6419
609 610
609 611
609 612
609 613
610 611
610 612
610 613
610 614
611 612
611 613
611 614
611 4729
611 2051
612 613
612 614
612 615
612 616
612 2340
613 614
613 615
613 616
613 617
613 5056
614 615
614 616
614 617
614 618
615 616
615 618
615 619
615 8699
616 618
616 620
616 4986
616 922
617 618
617 619
617 620
617 621
618 619
618 620
618 621
618 622
619 620
619 621
619 622
619 623
619 8101
620 621
620 622
620 623
620 624
621 622
621 623
621 624
621 625
622 625
622 626
622 4826
622 8882
622 9536
623 624
623 625
623 626
623 627
624 627
624 628
624 6963
624 3822
624 7097
625 626
625 627
625 628
625 629
626 627
626 629
626 630
626 4338
626 1774
626 6558
627 628
627 629
627 630
627 631
628 629
628 630
628 631
628 632
629 630
629 632
629 633
629 2163
630 631
630 632
630 633
630 634
631 632
631 633
631 634
631 635
632 634
632 635
632 636
632 8406
632 1455
633 634
633 635
633 636
633 9885
634 635
634 636
634 637
634 638
634 5578
635 636
635 637
635 638
635 639
636 638
636 639
636 640
636 680
637 638
637 639
637 640
637 641
638 639
638 640
638 641
638 642
639 640
639 642
639 643
639 8129
639 8856
639 5652
640 641
640 642
640 643
640 644
640 6530
641 642
641 643
641 644
641 645
642 643
642 644
642 645
642 646
642 2054
643 644
643 645
643 646
643 647
644 645
644 647
644 648
644 5567
644 4804
645 646
645 647
645 648
645 649
646 647
646 649
646 650
647 648
647 649
647 650
647 651
648 649
648 650
648 651
648 652
648 2958
649 650
649 651
649 652
649 653
650 651
650 652
650 653
650 654
651 652
651 653
651 654
651 655
651 2050
652 654
652 655
652 656
652 3023
652 6918
653 654
653 655
653 656
653 5947
654 655
654 656
654 657
654 658
655 657
655 658
655 659
655 2534
656 657
656 658
656 659
656 660
656 1612
657 658
657 659
657 660
657 661
658 659
658 660
658 661
658 2196
658 5613
659 660
659 661
659 662
659 663
660 662
660 663
660 664
660 6145
660 8626
661 662
661 663
661 664
661 9106
662 663
662 664
662 665
662 666
662 7916
662 3244
663 664
663 665
663 666
663 667
663 9246
664 665
664 666
664 668
664 1498
665 666
665 667
665 669
665 9261
665 2799
665 8312
666 667
666 668
666 669
666 670
667 668
667 669
667 670
667 671
668 669
668 670
668 671
668 892
669 670
669 671
669 672
669 673
670 671
670 672
670 673
670 674
671 672
671 673
671 674
671 675
672 673
672 674
672 675
672 676
673 674
673 675
673 676
673 677
674 675
674 676
674 677
674 678
675 676
675 677
675 678
675 679
675 4352
676 677
676 678
676 680
676 5664
677 678
677 679
677 681
677 6330
678 679
678 680
678 682
678 7859
678 7216
679 680
679 681
679 682
679 683
680 681
680 682
680 684
680 8861
680 4215
681 682
681 683
681 685
681 1098
682 683
682 684
682 685
682 686
683 684
683 685
683 686
683 687
684 685
684 687
684 688
684 4556
685 686
685 687
685 688
685 689
686 687
686 688
686 689
686 690
687 688
687 690
687 691
687 4624
688 689
688 691
688 692
688 706
688 747
689 690
689 691
689 692
689 693
690 692
690 693
690 694
690 2985
690 9132
691 692
691 693
691 694
691 695
691 6460
692 693
692 694
692 695
692 696
693 695
693 697
693 780
693 7541
694 695
694 696
694 697
694 698
694 3542
695 696
695 697
695 698
695 699
695 3636
696 697
696 698
696 699
696 700
696 9935
697 698
697 699
697 700
697 701
698 699
698 701
698 702
698 4108
699 700
699 701
699 702
699 703
699 8452
700 701
700 702
700 703
700 704
701 702
701 703
701 704
701 705
701 6277
702 703
702 704
702 706
702 6297
703 704
703 705
703 706
703 707
704 706
704 707
704 708
705 706
705 707
705 708
705 709
705 7355
706 707
706 708
706 709
706 710
706 2956
707 708
707 709
707 710
707 711
708 710
708 711
708 4624
708 2220
709 710
709 711
709 712
709 713
710 711
710 713
710 714
710 5243
711 712
711 713
711 714
711 715
712 713
712 714
712 715
712 716
713 714
713 715
713 716
713 717
714 715
714 716
714 717
714 718
715 716
715 717
715 718
715 719
716 717
716 718
716 719
716 720
717 718
717 719
717 720
717 721
718 719
718 720
718 721
718 722
718 7498
719 720
719 721
719 722
719 723
720 721
720 722
720 724
720 2211
720 4541
720 8029
721 722
721 723
721 724
721 725
722 723
722 724
722 725
722 726
723 724
723 725
723 726
723 727
724 725
724 726
724 727
724 728
725 726
725 727
725 728
725 729
726 727
726 728
726 729
726 730
726 2303
726 5672
727 728
727 729
727 730
727 731
727 1767
728 730
728 731
728 732
728 6464
728 5009
729 730
729 732
729 733
729 9821
730 731
730 732
730 733
730 734
731 732
731 733
731 734
731 735
732 733
732 734
732 735
732 736
732 1747
733 734
733 735
733 736
733 737
733 7356
733 4323
734 735
734 736
734 737
734 4143
734 4224
734 5701
735 736
735 737
735 739
735 4112
736 737
736 738
736 739
736 740
737 738
737 739
737 740
737 741
738 739
738 740
738 741
738 742
738 8909
739 740
739 741
739 742
739 743
739 9401
739 1758
740 741
740 742
740 743
740 744
741 742
741 743
741 744
741 745
742 743
742 744
742 745
742 746
743 744
743 745
743 746
743 747
744 745
744 746
744 748
744 3714
744 9424
744 8413
745 746
745 748
745 749
745 6262
745 4416
746 747
746 748
746 749
746 750
746 9899
746 8436
747 748
747 750
747 9799
748 749
748 750
748 751
748 752
749 751
749 752
749 7860
749 7225
750 751
750 752
750 754
751 753
751 754
751 755
751 9999
751 9031
752 753
752 754
752 755
752 756
753 754
753 755
753 756
753 4038
754 757
754 758
754 4343
754 9221
755 757
755 758
755 759
755 8670
756 757
756 759
756 760
757 758
757 759
757 760
757 761
757 9135
758 759
758 760
758 761
758 762
758 1639
759 760
759 761
759 762
759 763
760 761
760 762
760 763
760 764
760 9208
761 762
761 763
761 765
761 5595
762 764
762 765
762 766
762 8053
763 764
763 765
763 766
763 767
764 765
764 766
764 767
764 3456
765 766
765 767
765 768
765 769
766 767
766 769
766 770
766 8850
767 768
767 769
767 770
767 771
768 769
768 770
768 772
768 8053
769 770
769 771
769 772
769 773
770 771
770 772
770 773
770 7356
771 772
771 773
771 774
771 775
772 774
772 776
772 1831
772 1214
772 1154
773 774
773 775
773 776
773 777
774 775
774 777
774 778
774 4150
775 776
775 777
775 778
775 779
776 777
776 778
776 779
776 780
777 778
777 780
777 781
777 4277
778 779
778 780
778 781
778 782
778 3123
779 780
779 781
779 782
779 783
779 4309
779 2129
780 781
780 782
780 783
780 784
781 782
781 783
781 784
781 785
782 784
782 785
782 786
783 784
783 785
783 786
783 787
783 8823
784 785
784 786
784 788
784 9373
785 786
785 787
785 789
785 1176
786 788
786 789
786 790
786 1991
787 788
787 789
787 790
787 5399
788 789
788 791
788 792
788 9677
789 791
789 792
789 793
789 6262
790 791
790 792
790 793
790 794
791 792
791 793
791 794
791 795
792 793
792 794
792 796
792 7041
793 794
793 795
793 796
793 797
794 795
794 797
794 798
794 7576
795 796
795 797
795 798
795 799
795 1762
796 797
796 798
796 5356
796 3220
797 798
797 800
797 801
797 4122
798 800
798 801
798 802
798 2506
799 800
799 801
799 802
799 803
799 6670
800 802
800 804
800 3815
800 1187
800 2045
800 6572
800 9561
801 802
801 803
801 804
801 805
801 7157
802 803
802 804
802 805
802 806
803 804
803 805
803 806
803 807
804 805
804 806
804 807
804 808
805 806
805 807
805 808
805 809
806 807
806 808
806 809
806 810
806 4095
807 808
807 809
807 810
807 8013
808 809
808 810
808 811
808 812
809 810
809 811
809 812
809 813
810 811
810 812
810 813
810 814
811 812
811 813
811 814
811 815
812 813
812 814
812 815
812 816
813 814
813 815
813 817
813 1746
813 9621
814 815
814 816
814 817
814 818
814 7270
814 8147
815 816
815 817
815 818
815 819
816 817
816 818
816 819
816 820
817 820
817 821
817 4626
817 9302
817 3384
818 819
818 820
818 821
818 822
819 820
819 821
819 822
819 823
819 2451
819 8656
820 821
820 824
820 7767
821 822
821 823
821 824
821 825
822 823
822 824
822 825
822 826
823 824
823 825
823 826
823 827
824 825
824 826
824 827
824 828
825 827
825 828
825 829
825 3335
826 827
826 828
826 829
826 830
827 828
827 829
827 830
827 831
828 829
828 830
828 832
828 6081
829 830
829 831
829 832
829 833
830 832
830 833
830 834
830 4098
830 6763
831 832
831 834
831 835
831 2815
832 833
832 834
832 835
832 836
833 834
833 836
833 837
833 1510
834 835
834 836
834 837
834 838
835 836
835 837
835 838
835 839
835 2483
836 837
836 838
836 840
836 4905
836 4789
837 838
837 839
837 840
837 841
837 9396
838 839
838 840
838 841
838 842
839 840
839 841
839 843
839 8600
839 5126
840 841
840 842
840 843
840 844
840 6037
841 842
841 843
841 844
841 845
842 843
842 844
842 845
842 846
843 844
843 845
843 846
843 847
843 5022
843 4699
843 4389
844 845
844 846
844 847
844 848
845 846
845 847
845 848
845 849
846 847
846 848
846 849
846 850
847 848
847 849
847 850
847 851
848 849
848 850
848 851
848 4384
849 850
849 851
849 853
849 7346
850 851
850 852
850 853
850 854
851 852
851 853
851 854
851 855
851 1678
851 6303
852 853
852 854
852 855
852 4810
852 8022
853 854
853 855
853 856
854 855
854 856
854 857
854 858
854 3378
854 5616
855 856
855 857
855 858
855 859
855 6708
856 857
856 858
856 859
856 860
857 858
857 859
857 860
857 861
858 859
858 860
858 861
858 862
859 860
859 861
859 862
859 863
860 861
860 862
860 864
860 1766
860 8236
860 1786
861 862
861 863
861 864
861 865
862 863
862 864
862 865
862 866
863 864
863 865
863 866
863 867
863 1738
863 3127
864 865
864 866
864 867
864 868
865 868
865 869
865 8221
865 7399
866 867
866 869
866 870
866 2960
867 869
867 871
867 8656
867 4095
868 869
868 870
868 4275
868 5048
869 870
869 871
869 872
869 873
870 871
870 872
870 873
870 874
871 872
871 873
871 874
871 875
872 873
872 874
872 875
872 876
873 874
873 875
873 876
873 877
873 3622
874 875
874 876
874 877
874 878
874 8261
875 876
875 877
875 879
875 7985
876 877
876 879
876 880
876 9821
877 879
877 880
877 881
877 2266
878 879
878 880
878 881
878 882
878 3235
878 3370
879 880
879 881
879 882
879 1594
879 5085
880 881
880 883
880 884
880 6489
881 882
881 883
881 884
881 885
881 4373
882 884
882 885
882 886
882 6579
882 7413
883 884
883 885
883 886
883 8020
884 885
884 886
884 888
884 1712
884 6754
884 8174
885 886
885 887
885 888
885 889
886 887
886 888
886 889
886 1212
886 4602
887 888
887 889
887 890
887 891
887 4930
888 889
888 890
888 891
888 892
889 890
889 891
889 893
889 9825
890 891
890 892
890 893
890 894
891 892
891 893
891 894
891 895
891 4184
892 894
892 896
892 8630
892 4199
893 894
893 895
893 896
893 897
893 3218
894 895
894 896
894 897
894 898
895 896
895 897
895 898
895 899
895 3986
896 897
896 898
896 899
896 900
897 898
897 899
897 900
897 901
897 5652
898 899
898 900
898 901
898 902
898 7732
899 900
899 901
899 902
899 903
900 901
900 902
900 903
900 904
901 902
901 903
901 904
901 905
902 903
902 904
902 905
902 906
903 904
903 906
903 9278
903 3752
904 905
904 906
904 907
904 908
905 906
905 907
905 908
905 909
906 907
906 908
906 909
906 910
907 908
907 909
907 910
907 911
908 909
908 910
908 911
908 912
908 6241
909 910
909 911
909 912
909 913
909 6792
909 3058
910 911
910 912
910 913
910 1090
911 912
911 913
911 914
911 915
912 913
912 914
912 915
912 916
912 8986
913 914
913 915
913 916
913 917
914 915
914 916
914 917
914 918
915 916
915 917
915 918
915 919
915 2306
916 917
916 918
916 919
916 920
917 918
917 919
917 920
917 921
918 919
918 920
918 922
918 9538
919 920
919 921
919 922
919 923
920 921
920 922
920 923
920 924
921 922
921 923
921 925
921 2054
922 923
922 924
922 925
922 926
923 924
923 925
923 926
923 927
923 8263
924 925
924 926
924 928
924 8410
925 927
925 928
925 929
925 8037
926 928
926 929
926 930
926 7458
927 928
927 929
927 930
927 931
928 929
928 930
928 931
928 932
929 931
929 933
929 5084
929 1546
929 1197
930 932
930 933
930 934
930 2564
931 932
931 934
931 935
931 6870
932 933
932 934
932 935
932 9254
933 934
933 935
933 936
933 937
934 935
934 7757
934 3319
934 4926
934 3943
935 936
935 939
935 5511
935 1280
936 937
936 938
936 939
936 940
937 938
937 941
937 5341
937 8576
938 939
938 940
938 941
938 942
939 940
939 941
939 942
939 943
940 941
940 942
940 943
940 944
941 942
941 943
941 944
941 945
942 943
942 944
942 945
942 946
942 8780
943 944
943 946
943 947
943 5245
943 1782
944 945
944 946
944 947
944 948
945 947
945 948
945 949
945 8560
945 4193
946 947
946 948
946 949
946 3247
946 6154
946 2490
947 948
947 949
947 950
947 951
948 949
948 950
948 951
948 952
948 4749
948 4945
949 950
949 951
949 952
949 953
950 951
950 952
950 953
950 954
951 952
951 953
951 954
951 955
951 9314
951 5781
952 953
952 954
952 955
952 956
952 5641
952 3802
953 955
953 956
953 957
953 8000
954 955
954 956
954 957
954 958
955 956
955 957
955 958
955 959
956 957
956 958
956 959
956 960
957 958
957 959
957 960
957 961
958 960
958 961
958 962
958 2545
959 960
959 962
959 963
959 9157
960 961
960 962
960 963
960 964
961 962
961 963
961 964
961 965
961 2999
961 8475
961 1504
962 963
962 965
962 966
962 4747
963 965
963 966
963 967
963 2116
963 7494
964 965
964 966
964 967
964 968
964 7897
965 966
965 967
965 968
965 969
965 4958
966 967
966 968
966 969
966 970
966 2258
967 968
967 969
967 970
967 971
968 969
968 970
968 971
968 972
969 970
969 971
969 972
969 973
970 971
970 972
970 973
970 974
971 972
971 973
971 974
971 975
972 973
972 974
972 975
972 976
973 974
973 975
973 976
973 977
973 9987
974 975
974 976
974 977
974 978
974 8062
975 976
975 977
975 978
975 5711
975 1772
976 978
976 979
976 980
976 8128
976 2816
977 978
977 979
977 980
977 981
977 5598
978 979
978 980
978 981
978 982
979 980
979 981
979 982
979 8354
980 982
980 983
980 984
980 5875
980 5311
980 6744
981 982
981 983
981 984
981 985
982 983
982 984
982 985
982 986
983 984
983 985
983 986
983 987
984 985
984 986
984 987
984 988
985 986
985 987
985 988
985 989
986 987
986 988
986 989
986 990
986 3535
986 5617
987 988
987 989
987 991
987 1859
987 9416
988 989
988 990
988 991
988 992
989 990
989 991
989 993
989 5826
990 991
990 992
990 993
990 994
990 6847
990 8738
991 992
991 993
991 994
991 995
992 994
992 995
992 996
992 6181
992 5383
993 994
993 995
993 996
993 997
993 5587
993 5349
994 995
994 997
994 998
994 3333
994 1412
994 6638
995 996
995 997
995 999
995 6135
996 997
996 998
996 999
996 1000
996 6901
997 998
997 999
997 1000
997 1001
998 999
998 1000
998 1001
998 1002
999 1000
999 1001
999 1002
999 1003
1000 1001
1000 1002
1000 1003
1000 1004
1001 1002
1001 1003
1001 1004
1001 1005
1002 1003
1002 1004
1002 1005
1002 4731
1003 1004
1003 1005
1003 1006
1003 1007
1004 1005
1004 1006
1004 1007
1004 1008
1005 1006
1005 1007
1005 1008
1005 1009
1006 1007
1006 1008
1006 1009
1006 1010
1006 1226
1007 1008
1007 1009
1007 1010
1007 1011
1008 1009
1008 1010
1008 1011
1008 7801
1008 3177
1008 5621
1009 1010
1009 1011
1009 1012
1009 1013
1009 9746
1010 1013
1010 1014
1010 5099
1010 9937
1011 1012
1011 1013
1011 1014
1011 1015
1012 1013
1012 1014
1012 1015
1012 1016
1012 7042
1013 1014
1013 1015
1013 1016
1013 1017
1013 1205
1014 1015
1014 1016
1014 1017
1014 1018
1014 8099
1015 1016
1015 1017
1015 1018
1015 1019
1015 8461
1015 4523
1016 1017
1016 1018
1016 1019
1016 1020
1016 5386
1017 1018
1017 1019
1017 1020
1017 1021
1017 2448
1018 1019
1018 1020
1018 1021
1018 1022
1019 1020
1019 1021
1019 1022
1019 1023
1020 1021
1020 1022
1020 1023
1020 1024
1020 7381
1021 1022
1021 1023
1021 1024
1021 1025
1022 1023
1022 1024
1022 1025
1022 1026
1022 1586
1023 1024
1023 1025
1023 1026
1023 1027
1024 1027
1024 1028
1024 8718
1024 2058
1025 1026
1025 1027
1025 1028
1025 1029
1026 1028
1026 1029
1026 1058
1026 3259
1026 3572
1027 1028
1027 1029
1027 1031
1027 7238
1027 6523
1028 1029
1028 1030
1028 1031
1028 1905
1028 7190
1029 1030
1029 1031
1029 1032
1029 1033
1029 6700
1030 1031
1030 1032
1030 1033
1030 1034
1030 9773
1031 1032
1031 1033
1031 1034
1031 1695
1032 1033
1032 1034
1032 1035
1032 1036
1033 1034
1033 1035
1033 1036
1033 1037
1033 2768
1034 1035
1034 1036
1034 1038
1034 5999
1035 1036
1035 1037
1035 1038
1035 1039
1036 1037
1036 1038
1036 1039
1036 1040
1036 6271
1037 1038
1037 1040
1037 1041
1037 1496
1038 1039
1038 1040
1038 1807
1038 3627
1039 1040
1039 1041
1039 1042
1039 1043
1040 1041
1040 1042
1040 1043
1040 1044
1041 1042
1041 1043
1041 1044
1041 1045
1042 1043
1042 1044
1042 1045
1042 1046
1043 1044
1043 1045
1043 1046
1043 1047
1044 1045
1044 1046
1044 1047
1044 1048
1044 2076
1045 1046
1045 1047
1045 1048
1045 1049
1045 5473
1045 9889
1046 1047
1046 1050
1046 7299
1046 3226
1046 8133
1046 2040
1047 1048
1047 1049
1047 1050
1047 1051
1047 1445
1047 2377
1048 1049
1048 1050
1048 1051
1048 1052
1049 1050
1049 1051
1049 1052
1049 7916
1049 2084
1050 1051
1050 1052
1050 1054
1051 1052
1051 1053
1051 1054
1051 1055
1051 9718
1052 1053
1052 1054
1052 1055
1052 1056
1053 1054
1053 1055
1053 1056
1053 1057
1053 8782
1054 1055
1054 1056
1054 1057
1054 1058
1055 1056
1055 1057
1055 1058
1055 1059
1055 6235
1056 1057
1056 1059
1056 7903
1056 2557
1056 6517
1057 1058
1057 1059
1057 1060
1057 1061
1058 1060
1058 1061
1058 1062
1058 5707
1059 1060
1059 1061
1059 1062
1059 1063
1059 8840
1060 1061
1060 1062
1060 1063
1060 1064
1060 5010
1061 1062
1061 1063
1061 1065
1061 8480
1061 2195
1062 1063
1062 1064
1062 1065
1062 1066
1063 1064
1063 1065
1063 1066
1063 1067
1064 1065
1064 1066
1064 1068
1064 1599
1065 1066
1065 1067
1065 1068
1065 1069
1066 1068
1066 1069
1066 1070
1066 2623
1067 1069
1067 1071
1067 8565
1067 9052
1068 1069
1068 1070
1068 1071
1068 1072
1069 1070
1069 1071
1069 1072
1069 1073
1070 1071
1070 1072
1070 1073
1070 1074
1071 1072
1071 1073
1071 1074
1071 1075
1072 1073
1072 1075
1072 8019
1072 1418
1072 5090
1073 1074
1073 1075
1073 1076
1073 1077
1074 1075
1074 1076
1074 1077
1074 1078
1075 1076
1075 1077
1075 1078
1075 1079
1076 1077
1076 1078
1076 1079
1076 1080
1076 3800
1077 1078
1077 1079
1077 1080
1077 1081
1077 6738
1078 1080
1078 1081
1078 1082
1078 3323
1079 1081
1079 1082
1079 1083
1079 1626
1080 1081
1080 1082
1080 1083
1080 1084
1080 5719
1081 1082
1081 1083
1081 1084
1081 3885
1082 1083
1082 1084
1082 1086
1082 3258
1083 1084
1083 1085
1083 1086
1083 1087
1084 1085
1084 1087
1084 1088
1084 9465
1085 1086
1085 1087
1085 1088
1085 1089
1086 1087
1086 1088
1086 1089
1086 1090
1086 9742
1087 1088
1087 1089
1087 1091
1087 4728
1088 1089
1088 1090
1088 1092
1088 6700
1089 1090
1089 1091
1089 1092
1089 1093
1089 8763
1090 1091
1090 1092
1090 1093
1090 1094
1091 1093
1091 1094
1091 1095
1091 8672
1092 1093
1092 1094
1092 1095
1092 1096
1093 1094
1093 1095
1093 1096
1093 1097
1094 1096
1094 1097
1094 1098
1095 1098
1095 1099
1095 5784
1095 7247
1096 1097
1096 1098
1096 3003
1096 2406
1097 1098
1097 1099
1097 1100
1097 1101
1097 9908
1098 1099
1098 1100
1098 1101
1098 1102
1099 1100
1099 1102
1099 1103
1099 7349
1099 7579
1100 1101
1100 1104
1100 1274
1100 1361
1101 1102
1101 1103
1101 1104
1101 1105
1102 1103
1102 1104
1102 1105
1102 1106
1103 1104
1103 1105
1103 1106
1103 1107
1103 8637
1104 1105
1104 1106
1104 1107
1104 1108
1104 9812
1105 1106
1105 1107
1105 1108
1105 1109
1105 5493
1106 1108
1106 1109
1106 1110
1106 3692
1106 4563
1107 1108
1107 1109
1107 1110
1107 1111
1108 1109
1108 1110
1108 1111
1108 1112
1109 1110
1109 1111
1109 1112
1109 1113
1110 1112
1110 1113
1110 1114
1110 5478
1110 6900
1111 1113
1111 1115
1111 3053
1111 7747
1111 7493
1111 3714
1112 1113
1112 1114
1112 1115
1112 1116
1113 1114
1113 1115
1113 1116
1113 1117
1114 1115
1114 1116
1114 1117
1114 1118
1114 1928
1115 1116
1115 1118
1115 6639
1115 6732
1116 1117
1116 1118
1116 1119
1116 1120
1117 1118
1117 1120
1117 1121
1117 3853
1118 1119
1118 1120
1118 1121
1118 1122
1118 6977
1119 1120
1119 1121
1119 1123
1120 1121
1120 1122
1120 1123
1120 1124
1121 1122
1121 1123
1121 1124
1121 1125
1122 1124
1122 1126
1122 7655
1122 5585
1123 1124
1123 1125
1123 1126
1123 1127
1123 2797
1124 1126
1124 1127
1124 1128
1124 3884
1125 1126
1125 1128
1125 1129
1125 2276
1126 1127
1126 1128
1126 1129
1126 1130
1126 6595
1127 1128
1127 1129
1127 1130
1127 1131
1128 1129
1128 1130
1128 1131
1128 1132
1129 1130
1129 1131
1129 1132
1129 1133
1130 1131
1130 1132
1130 1133
1130 6250
1131 1132
1131 1133
1131 1134
1131 1135
1132 1133
1132 1134
1132 1135
1132 1136
1133 1135
1133 1136
1133 1137
1133 5074
1133 6533
1134 1135
1134 1136
1134 1137
1134 1138
1135 1136
1135 1138
1135 1139
1135 3518
1136 1137
1136 1138
1136 1139
1136 1140
1137 1139
1137 1140
1137 1141
1137 6783
1137 2260
1138 1139
1138 1140
1138 1141
1138 1142
1138 9806
1139 1140
1139 1141
1139 1142
1139 1143
1140 1141
1140 1142
1140 1143
1140 1144
1140 5656
1141 1142
1141 1143
1141 1145
1141 6789
1141 9511
1142 1144
1142 1146
1142 9748
1143 1144
1143 1145
1143 1147
1143 7286
1144 1145
1144 1147
1144 1148
1144 7684
1145 1146
1145 1147
1145 1149
1146 1147
1146 1148
1146 1149
1146 1150
1147 1148
1147 1149
1147 1150
1147 1151
1147 8527
1148 1149
1148 1150
1148 1152
1148 6968
1148 8180
1149 1151
1149 1152
1149 1153
1149 9934
1150 1151
1150 1152
1150 1153
1150 1154
1151 1152
1151 1153
1151 1154
1151 1155
1152 1153
1152 1154
1152 1155
1152 1156
1153 1154
1153 1155
1153 1157
1153 5975
1153 6502
1154 1155
1154 1156
1154 1157
1154 6951
1155 1156
1155 1157
1155 1158
1155 1159
1155 2346
1155 2423
1156 1157
1156 1158
1156 1159
1156 1160
1156 6975
1157 1158
1157 1159
1157 1160
1157 1161
1158 1160
1158 1161
1158 1162
1158 4461
1158 2959
1159 1160
1159 1161
1159 1162
1159 1163
1160 1161
1160 1162
1160 1163
1160 1164
1160 7735
1160 7274
1161 1162
1161 1163
1161 2944
1161 2441
1161 2255
1162 1163
1162 1164
1162 1165
1162 1166
1162 2711
1163 1164
1163 1165
1163 1166
1163 1167
1164 1165
1164 1166
1164 1167
1164 1168
1165 1166
1165 1167
1165 1168
1165 1169
1166 1167
1166 1168
1166 1169
1166 1170
1167 1168
1167 1170
1167 1171
1167 6313
1167 1246
1168 1169
1168 1170
1168 1171
1168 1172
1168 8607
1169 1170
1169 1171
1169 1172
1169 1173
1170 1171
1170 1172
1170 1173
1170 1174
1171 1172
1171 1174
1171 1175
1171 2635
1172 1173
1172 1174
1172 1175
1172 1176
1173 1174
1173 1175
1173 1176
1173 1177
1173 4212
1173 1407
1173 4304
1174 1176
1174 1178
1174 7738
1175 1176
1175 1177
1175 1178
1175 1179
1175 3919
1176 1177
1176 1178
1176 1179
1176 1180
1176 2997
1177 1178
1177 1179
1177 1181
1177 5297
1178 1179
1178 1180
1178 1181
1178 1182
1179 1180
1179 1181
1179 9968
1179 8692
1180 1181
1180 1182
1180 1183
1180 1184
1181 1182
1181 1183
1181 1184
1181 1185
1181 6779
1181 4650
1181 3280
1182 1184
1182 1185
1182 1186
1182 9870
1183 1184
1183 1185
1183 1186
1183 1187
1184 1185
1184 1186
1184 1187
1184 1508
1185 1186
1185 1187
1185 1189
1185 1671
1186 1187
1186 1188
1186 1189
1186 1190
1187 1188
1187 1189
1187 1190
1187 1191
1188 1189
1188 1190
1188 1192
1188 5009
1188 5906
1188 6694
1189 1191
1189 1192
1189 1193
1189 2574
1190 1192
1190 1193
1190 1194
1191 1192
1191 1193
1191 1194
1191 1195
1192 1193
1192 1194
1192 1195
1192 1196
1193 1194
1193 1195
1193 1196
1193 1197
1193 7461
1194 1195
1194 1196
1194 4072
1195 1196
1195 1197
1195 1198
1195 1199
1196 1197
1196 1198
1196 1199
1196 1200
1196 3556
1197 1198
1197 1199
1197 1200
1197 1201
1197 6980
1198 1199
1198 1200
1198 1201
1198 1202
1199 1200
1199 1201
1199 1202
1199 1203
1199 2827
1200 1202
1200 1203
1200 1204
1200 3406
1201 1202
1201 1203
1201 1204
1201 1205
1201 6809
1202 1203
1202 1204
1202 1205
1202 2371
1203 1204
1203 1205
1203 1206
1203 1207
1203 1253
1204 1205
1204 1206
1204 1207
1204 1208
1205 1206
1205 1207
1205 1209
1206 1207
1206 1208
1206 1209
1206 1210
1207 1208
1207 1209
1207 1210
1207 1211
1208 1210
1208 1211
1208 1212
1208 1696
1208 6482
1209 1210
1209 1211
1209 1212
1209 1213
1210 1211
1210 1212
1210 1213
1210 5765
1211 1212
1211 1213
1211 1214
1211 1215
1211 8052
1212 1213
1212 1214
1212 1216
1213 1214
1213 1215
1213 1216
1213 1217
1214 1216
1214 1217
1214 1218
1214 3184
1215 1216
1215 1217
1215 1218
1215 1219
1216 1218
1216 1219
1216 1220
1216 2518
1217 1218
1217 1219
1217 1220
1217 1221
1217 5567
1218 1219
1218 1220
1218 1221
1218 1222
1218 5982
1219 1220
1219 1222
1219 1223
1219 3082
1220 1221
1220 1222
1220 1223
1220 1224
1221 1222
1221 1223
1221 1224
1221 1225
1221 2068
1222 1223
1222 1224
1222 1225
1222 1226
1223 1224
1223 1225
1223 1226
1223 1227
1224 1225
1224 1226
1224 1227
1224 1228
1225 1226
1225 1227
1225 1228
1225 1229
1225 4038
1225 9368
1225 5584
1226 1227
1226 1228
1226 1229
1227 1228
1227 1230
1227 1231
1227 8700
1228 1229
1228 1230
1228 1231
1229 1230
1229 1231
1229 1232
1229 1233
1230 1231
1230 1232
1230 1233
1230 1234
1231 1232
1231 1233
1231 1234
1231 1235
1232 1233
1232 1234
1232 1235
1232 1236
1233 1234
1233 1235
1233 1236
1233 6020
1233 9207
1234 1235
1234 1236
1234 1238
1234 9402
1235 1236
1235 1237
1235 1238
1235 1239
1235 5973
1236 1237
1236 1238
1236 1239
1236 1240
1237 1238
1237 1239
1237 1240
1237 1241
1238 1239
1238 1240
1238 1241
1238 1242
1239 1240
1239 1241
1239 1242
1239 1243
1240 1241
1240 1242
1240 1243
1240 1244
1241 1242
1241 1243
1241 1244
1241 1245
1242 1243
1242 1244
1242 1245
1242 1246
1242 2317
1243 1244
1243 1245
1243 1246
1243 1247
1244 1245
1244 1246
1244 1247
1244 1248
1245 1246
1245 1249
1245 1361
1245 4633
1245 6519
1246 1247
1246 1249
1246 6714
1246 9796
1246 2124
1247 1248
1247 1249
1247 1251
1247 5598
1248 1249
1248 1250
1248 1251
1248 1252
1249 1251
1249 1252
1249 7557
1249 7751
1250 1252
1250 1253
1250 1254
1250 5610
1251 1252
1251 1253
1251 1254
1251 1255
1252 1253
1252 1255
1252 1256
1252 6189
1253 1255
1253 1256
1253 1257
1254 1255
1254 1256
1254 1257
1254 1258
1254 5101
1254 6868
1255 1256
1255 1257
1255 1258
1255 1259
1256 1258
1256 1259
1256 1260
1256 1352
1257 1259
1257 1260
1257 1261
1257 2288
1258 1259
1258 1260
1258 1262
1258 3142
1258 7458
1259 1260
1259 1261
1259 1262
1259 1263
1260 1261
1260 1262
1260 1264
1260 7365
1260 5948
1261 1263
1261 1264
1261 1265
1261 5041
1262 1263
1262 1264
1262 1265
1262 1266
1263 1264
1263 1265
1263 1266
1263 1267
1263 1348
1264 1265
1264 1266
1264 1267
1264 1268
1264 1414
1265 1266
1265 1267
1265 1268
1265 4295
1266 1267
1266 1268
1266 1269
1266 1270
1267 1268
1267 1269
1267 1270
1267 1271
1267 9394
1268 1269
1268 1270
1268 1271
1268 1272
1269 1270
1269 1271
1269 1273
1269 8407
1270 1271
1270 1272
1270 1273
1270 1274
1271 1272
1271 1273
1271 1274
1271 7527
1272 1273
1272 1274
1272 1275
1272 1276
1273 1274
1273 1276
1273 1277
1273 2745
1273 2225
1274 1275
1274 1276
1274 1277
1274 1278
1275 1276
1275 1277
1275 1278
1275 1279
1276 1277
1276 1278
1276 1279
1276 1280
1276 5147
1277 1278
1277 1279
1277 1280
1277 1281
1278 1279
1278 1280
1278 1281
1278 1282
1279 1280
1279 1281
1279 1282
1279 1283
1280 1282
1280 1283
1280 1284
1280 9696
1281 1282
1281 1283
1281 1284
1281 1285
1281 8459
1282 1283
1282 1284
1282 1285
1282 1286
1283 1284
1283 1285
1283 1286
1283 1287
1284 1285
1284 1286
1284 1287
1284 1288
1285 1286
1285 1287
1285 1288
1285 1289
1285 6907
1286 1287
1286 1288
1286 1289
1286 1290
1287 1289
1287 1290
1287 1291
1287 6257
1288 1289
1288 1290
1288 1291
1288 1292
1288 7800
1289 1291
1289 1292
1289 1293
1290 1291
1290 1292
1290 1293
1290 1294
1291 1292
1291 1293
1291 1294
1291 1295
1292 1293
1292 1294
1292 1295
1292 1296
1293 1294
1293 1295
1293 1296
1293 1297
1294 1295
1294 1296
1294 1297
1294 1298
1295 1296
1295 1297
1295 1298
1295 5232
1295 6537
1296 1297
1296 1298
1296 1299
1296 1300
1297 1298
1297 1299
1297 1300
1297 1301
1298 1300
1298 1301
1298 1302
1299 1300
1299 1301
1299 1302
1299 1303
1300 1301
1300 1302
1300 1303
1300 1304
1301 1302
1301 1303
1301 1304
1301 2743
1302 1303
1302 1304
1302 1305
1302 1306
1302 9744
1303 1304
1303 1305
1303 1306
1303 1307
1304 1305
1304 1306
1304 1307
1304 1308
1305 1306
1305 1307
1305 1308
1305 1309
1306 1307
1306 1308
1306 1310
1306 3176
1306 6614
1307 1308
1307 1309
1307 1310
1307 1311
1308 1309
1308 1310
1308 1311
1308 1312
1308 2031
1308 6890
1309 1310
1309 1311
1309 1312
1309 1313
1310 1311
1310 1312
1310 1313
1310 1314
1311 1312
1311 1313
1311 1314
1311 1315
1312 1313
1312 1314
1312 1315
1312 1316
1313 1314
1313 1315
1313 1316
1313 1317
1313 7404
1314 1315
1314 1316
1314 1317
1314 1318
1315 1316
1315 1317
1315 1319
1315 1986
1316 1317
1316 1318
1316 1319
1316 1320
1317 1318
1317 1319
1317 1320
1317 1321
1318 1319
1318 1320
1318 1321
1318 1322
1319 1320
1319 1321
1319 1323
1319 9440
1319 1787
1319 9334
1320 1321
1320 1322
1320 1323
1320 1324
1321 1322
1321 1323
1321 1324
1321 1325
1322 1323
1322 1324
1322 1325
1322 1326
1322 6627
1323 1324
1323 1325
1323 1327
1323 8941
1324 1326
1324 1327
1324 1328
1324 2897
1325 1326
1325 1327
1325 1328
1325 1329
1326 1327
1326 1328
1326 1329
1326 1330
1327 1328
1327 1329
1327 1330
1327 1331
1327 8674
1328 1329
1328 1331
1328 1332
1328 4055
1329 1330
1329 1331
1329 1332
1329 1333
1330 1331
1330 1332
1330 1334
1330 6353
1330 7677
1331 1332
1331 1333
1331 1334
1331 3716
1332 1333
1332 1334
1332 1335
1332 1336
1333 1334
1333 1335
1333 1337
1333 6933
1333 9884
1334 1335
1334 1337
1334 1338
1334 5410
1335 1336
1335 1337
1335 1338
1335 1339
1336 1338
1336 1339
1336 1340
1337 1338
1337 1339
1337 1340
1337 1341
1338 1339
1338 1340
1338 1341
1338 1342
1339 1340
1339 1341
1339 1342
1339 1343
1340 1341
1340 1342
1340 1343
1340 1344
1340 5161
1341 1342
1341 1343
1341 1344
1341 1345
1342 1343
1342 1344
1342 1345
1342 1346
1343 1344
1343 1345
1343 1346
1343 1347
1344 1345
1344 1346
1344 1347
1344 1348
1344 3737
1345 1346
1345 1347
1345 1348
1345 1349
1345 5128
1346 1347
1346 1348
1346 1349
1346 1350
1347 1348
1347 1349
1347 1351
1347 6658
1348 1349
1348 1350
1348 1352
1349 1350
1349 1351
1349 1352
1349 1353
1349 7090
1349 9567
1350 1352
1350 1353
1350 1354
1350 1487
1350 4527
1351 1352
1351 1354
1351 1355
1351 4918
1351 9096
1352 1353
1352 1354
1352 1355
1352 1356
1352 3829
1353 1355
1353 1356
1353 1357
1353 5346
1353 4353
1354 1355
1354 1356
1354 1357
1354 1358
1355 1356
1355 1357
1355 1358
1355 3368
1355 7835
1356 1357
1356 1358
1356 1359
1356 1360
1356 2490
1357 1358
1357 1359
1357 1360
1357 1361
1357 3006
1358 1359
1358 1360
1358 1361
1358 1362
1359 1360
1359 1361
1359 1362
1359 1363
1360 1362
1360 1363
1360 1364
1360 9274
1361 1362
1361 1363
1361 1364
1361 1365
1361 4519
1361 5633
1362 1363
1362 1364
1362 1365
1362 1366
1363 1364
1363 1365
1363 1366
1363 4949
1364 1365
1364 1366
1364 1367
1364 1368
1364 7624
1365 1366
1365 1367
1365 1368
1366 1367
1366 1368
1366 1369
1366 1370
1366 6552
1367 1368
1367 1369
1367 1371
1367 1886
1368 1369
1368 1370
1368 1371
1368 1372
1369 1370
1369 1372
1369 1373
1369 3213
1370 1371
1370 1372
1370 1373
1370 1374
1370 3965
1371 1372
1371 1373
1371 1374
1371 1375
1372 1373
1372 1374
1372 1375
1372 3963
1372 3955
1373 1374
1373 1375
1373 1376
1373 1377
1374 1375
1374 1376
1374 1377
1374 1378
1375 1376
1375 1377
1375 1378
1375 3438
1376 1377
1376 1378
1376 1379
1376 9410
1376 4026
1377 1378
1377 1379
1377 1380
1377 1381
1378 1379
1378 1380
1378 1381
1378 4476
1379 1380
1379 1382
1379 1383
1379 5464
1379 2464
1380 1381
1380 1382
1380 1383
1380 1384
1381 1382
1381 1383
1381 1384
1381 1385
1381 3332
1382 1383
1382 1384
1382 1385
1382 1386
1383 1384
1383 1386
1383 1387
1383 2143
1383 8898
1383 2904
1384 1385
1384 1386
1384 1388
1384 2559
1385 1387
1385 1388
1385 1389
1385 1886
1386 1387
1386 1388
1386 1390
1386 5772
1387 1388
1387 1389
1387 1390
1387 1391
1387 7865
1388 1389
1388 1390
1388 1391
1388 1392
1388 3051
1389 1390
1389 1391
1389 1392
1389 1393
1389 5432
1389 7323
1390 1391
1390 1392
1390 1393
1390 1394
1391 1392
1391 1393
1391 1394
1391 1395
1392 1393
1392 1394
1392 1395
1392 2274
1392 5862
1393 1394
1393 1395
1393 1396
1393 1397
1393 7776
1394 1395
1394 1396
1394 1397
1394 1398
1395 1396
1395 1397
1395 1398
1395 1399
1396 1397
1396 1399
1396 1400
1396 7419
1396 2895
1397 1398
1397 1399
1397 1400
1397 1401
1398 1399
1398 1400
1398 1401
1398 1402
1399 1400
1399 1401
1399 1403
1399 2108
1399 5612
1400 1401
1400 1402
1400 1403
1400 1404
1401 1402
1401 1403
1401 1404
1401 1405
1402 1403
1402 1404
1402 1405
1402 1406
1403 1404
1403 1405
1403 1406
1403 1407
1404 1405
1404 1406
1404 1407
1404 1408
1405 1406
1405 1407
1405 1408
1405 1409
1406 1407
1406 1408
1406 1409
1406 1410
1406 3629
1407 1408
1407 1409
1407 1411
1408 1409
1408 1410
1408 1411
1408 1412
1409 1410
1409 1411
1409 9785
1409 9745
1410 1411
1410 1412
1410 1413
1410 1414
1411 1412
1411 1413
1411 1414
1411 1415
1412 1413
1412 1415
1412 1416
1413 1416
1413 1417
1413 8916
1413 9294
1414 1415
1414 1417
1414 1418
1414 1734
1415 1416
1415 1417
1415 1418
1415 1557
1416 1417
1416 1418
1416 1419
1416 1420
1417 1418
1417 1419
1417 1420
1417 1421
1418 1419
1418 1421
1418 2230
1419 1420
1419 1421
1419 1422
1419 1423
1419 6657
1420 1421
1420 1422
1420 1423
1420 1424
1420 4311
1421 1422
1421 1423
1421 1424
1421 1425
1421 3938
1422 1423
1422 1425
1422 1426
1422 8042
1423 1424
1423 1425
1423 1426
1423 1427
1424 1425
1424 1427
1424 1428
1424 6000
1425 1426
1425 1427
1425 1428
1425 1429
1426 1427
1426 1428
1426 1429
1426 1430
1427 1428
1427 1429
1427 1430
1427 1431
1427 9342
1428 1429
1428 1430
1428 1431
1428 1432
1429 1430
1429 1431
1429 1432
1429 1433
1430 1432
1430 1433
1430 1434
1430 4407
1430 3039
1431 1432
1431 1433
1431 1435
1431 6344
1432 1433
1432 1434
1432 1435
1432 7727
1432 9188
1432 7450
1433 1434
1433 1435
1433 1436
1433 1437
1434 1435
1434 1437
1434 1438
1434 6098
1435 1436
1435 1437
1435 1439
1435 2866
1436 1437
1436 1438
1436 1439
1436 8736
1437 1438
1437 1439
1437 1440
1437 1441
1438 1439
1438 1440
1438 1441
1438 1442
1438 2383
1438 8164
1439 1440
1439 1441
1439 1442
1439 1443
1440 1442
1440 1443
1440 1444
1440 3434
1441 1442
1441 1443
1441 1444
1441 1445
1442 1443
1442 1444
1442 1445
1442 1446
1443 1444
1443 1445
1443 1446
1443 1447
1443 3219
1444 1445
1444 1446
1444 1448
1444 6694
1445 1448
1445 1449
1445 6010
1446 1447
1446 1448
1446 1449
1446 1450
1447 1448
1447 1449
1447 1451
1447 8160
1448 1449
1448 1450
1448 1451
1448 1452
1449 1450
1449 1451
1449 1452
1449 4462
1450 1451
1450 1452
1450 1453
1450 1454
1451 1452
1451 1454
1451 1455
1451 3064
1452 1453
1452 1454
1452 1455
1452 1456
1452 6467
1452 6760
1453 1454
1453 1455
1453 1457
1453 3279
1454 1455
1454 1456
1454 1457
1454 1458
1455 1456
1455 1458
1455 1459
1456 1457
1456 1458
1456 1460
1456 3194
1456 6550
1457 1458
1457 1459
1457 1460
1458 1460
1458 1461
1458 3674
1458 6201
1459 1460
1459 1461
1459 1462
1459 1463
1460 1461
1460 1462
1460 1463
1460 1464
1461 1462
1461 1463
1461 1464
1461 1465
1462 1463
1462 1464
1462 1465
1462 1466
1463 1464
1463 1466
1463 1467
1463 6089
1464 1465
1464 1466
1464 1467
1464 1468
1464 6044
1465 1466
1465 1467
1465 1468
1465 1469
1465 6499
1466 1467
1466 1468
1466 1469
1466 9399
1467 1468
1467 1469
1467 1470
1467 1471
1468 1469
1468 1470
1468 1471
1468 1472
1468 8341
1469 1470
1469 1471
1469 1472
1469 1473
1470 1471
1470 1472
1470 1473
1470 1474
1470 5562
1471 1472
1471 1473
1471 1474
1471 1475
1472 1473
1472 1474
1472 1475
1472 1476
1473 1474
1473 1475
1473 1476
1473 8706
1474 1475
1474 1476
1474 1477
1474 1478
1475 1477
1475 1478
1475 1479
1475 2319
1475 7042
1476 1477
1476 1478
1476 1479
1476 1480
1477 1478
1477 1479
1477 1480
1477 1481
1478 1479
1478 1480
1478 1481
1478 1482
1479 1480
1479 1481
1479 1482
1479 1483
1480 1481
1480 1482
1480 1483
1480 1484
1481 1483
1481 1484
1481 1485
1481 8279
1482 1483
1482 1485
1482 1486
1482 9045
1483 1485
1483 1486
1483 1487
1483 4153
1483 7960
1484 1485
1484 1486
1484 1487
1484 1488
1485 1486
1485 1487
1485 1488
1485 1489
1486 1487
1486 1488
1486 1490
1486 2643
1486 1987
1487 1488
1487 1489
1487 1490
1487 3509
1488 1489
1488 1490
1488 1491
1488 1492
1488 1922
1488 5607
1489 1490
1489 1491
1489 1492
1489 1493
1489 2981
1490 1491
1490 1492
1490 1493
1490 1494
1491 1492
1491 1493
1491 1495
1491 1897
1491 8406
1492 1493
1492 1494
1492 1496
1492 7791
1493 1494
1493 1495
1493 1496
1493 1497
1494 1495
1494 1496
1494 1497
1494 1498
1494 7105
1495 1496
1495 1497
1495 1499
1495 6377
1495 7443
1496 1497
1496 1498
1496 1499
1496 1500
1497 1498
1497 1499
1497 1500
1497 1501
1498 1499
1498 1500
1498 1501
1498 1502
1499 1500
1499 1501
1499 1503
1499 5948
1499 5542
1500 1502
1500 1503
1500 1504
1500 2961
1501 1502
1501 1504
1501 1505
1501 4858
1502 1503
1502 1504
1502 1505
1502 7879
1503 1504
1503 1505
1503 1506
1503 1507
1504 1505
1504 1506
1504 1508
1505 1506
1505 1507
1505 9099
1505 5892
1506 1507
1506 1508
1506 1509
1506 1510
1506 3568
1506 3683
1507 1509
1507 1510
1507 1511
1507 6003
1507 6898
1508 1509
1508 1510
1508 1511
1508 1512
1509 1510
1509 1511
1509 1512
1509 1513
1510 1511
1510 1512
1510 1513
1510 1514
1511 1512
1511 1513
1511 1514
1511 1515
1511 7869
1512 1513
1512 1514
1512 1515
1512 1516
1513 1514
1513 1515
1513 1516
1513 1517
1514 1515
1514 1517
1514 1518
1514 7879
1515 1516
1515 1517
1515 1518
1515 1519
1516 1517
1516 1519
1516 1520
1516 5029
1517 1518
1517 1519
1517 1520
1517 1521
1518 1519
1518 1520
1518 1521
1518 1522
1519 1520
1519 1521
1519 1522
1519 1523
1520 1521
1520 1522
1520 1523
1520 1524
1521 1522
1521 1523
1521 1524
1521 1525
1521 4478
1522 1523
1522 1524
1522 1525
1522 1526
1523 1524
1523 1525
1523 1526
1523 1527
1524 1525
1524 1526
1524 1527
1524 1528
1524 3347
1525 1526
1525 1527
1525 1528
1525 1529
1525 2890
1526 1527
1526 1528
1526 1529
1526 1530
1526 4425
1527 1529
1527 1530
1527 1531
1527 6005
1527 7207
1528 1529
1528 1530
1528 1531
1528 1532
1529 1530
1529 1531
1529 1533
1529 9796
1530 1531
1530 1532
1530 1533
1530 1534
1531 1532
1531 1534
1531 1535
1531 7440
1532 1533
1532 1534
1532 1535
1532 1536
1533 1534
1533 1535
1533 1537
1533 8308
1534 1535
1534 1536
1534 1537
1534 1538
1535 1536
1535 1537
1535 1538
1535 1539
1536 1537
1536 1539
1536 1540
1536 6222
1537 1538
1537 1539
1537 1540
1537 6313
1538 1539
1538 1540
1538 1541
1538 1542
1538 9215
1538 4176
1539 1540
1539 1541
1539 1542
1539 1543
1540 1541
1540 1542
1540 1543
1540 1544
1541 1543
1541 1544
1541 1545
1541 1880
1541 8020
1541 5031
1542 1543
1542 1545
1542 1546
1542 2035
1543 1544
1543 1545
1543 1546
1543 1547
1544 1545
1544 1547
1544 1548
1544 3338
1545 1546
1545 1548
1545 1549
1545 8618
1546 1548
1546 1549
1546 5421
1546 8872
1546 8475
1547 1548
1547 1549
1547 1550
1547 1551
1548 1549
1548 1550
1548 1552
1548 2144
1549 1550
1549 1551
1549 1552
1549 1553
1549 9944
1550 1551
1550 1552
1550 1553
1550 1554
1551 1552
1551 1553
1551 1554
1551 1555
1552 1553
1552 1554
1552 1555
1552 1556
1552 8768
1553 1554
1553 1555
1553 1556
1553 1557
1553 4493
1554 1555
1554 1556
1554 1557
1554 1558
1554 6271
1555 1556
1555 1557
1555 1558
1555 1559
1556 1557
1556 1559
1556 1560
1556 6980
1557 1558
1557 1559
1557 1560
1557 1561
1557 4071
1558 1559
1558 1560
1558 1561
1558 1562
1559 1560
1559 1561
1559 1562
1559 1563
1560 1561
1560 1562
1560 1563
1560 1564
1560 6433
1561 1562
1561 1563
1561 1564
1561 1565
1561 7515
1562 1563
1562 1564
1562 1565
1562 1566
1563 1564
1563 1565
1563 1566
1563 1567
1564 1565
1564 1566
1564 1568
1564 6378
1565 1566
1565 1567
1565 1568
1565 1569
1566 1567
1566 1569
1566 1570
1566 4206
1566 5149
1567 1568
1567 1569
1567 1570
1567 1571
1568 1569
1568 1570
1568 1571
1568 7210
1569 1570
1569 1571
1569 1572
1569 3634
1569 2273
1570 1571
1570 1572
1570 1573
1570 1574
1571 1573
1571 1574
1571 1575
1571 3991
1571 6356
1572 1573
1572 1574
1572 1575
1572 1576
1572 8231
1573 1574
1573 1575
1573 1577
1573 3038
1574 1575
1574 1576
1574 1577
1574 1578
1575 1576
1575 1577
1575 1578
1575 1579
1576 1577
1576 1578
1576 1580
1576 7713
1577 1578
1577 1579
1577 1580
1577 3286
1578 1579
1578 1580
1578 1581
1578 1582
1578 7508
1579 1580
1579 1581
1579 1582
1579 1583
1580 1582
1580 1583
1580 1584
1580 6146
1581 1582
1581 1583
1581 1584
1581 1585
1582 1583
1582 1584
1582 1585
1582 1586
1582 9254
1583 1584
1583 1585
1583 1586
1583 1587
1583 3822
1583 4018
1584 1585
1584 1588
1584 3880
1584 8427
1585 1587
1585 1588
1585 1589
1585 9813
1586 1587
1586 1588
1586 9996
1586 8879
1586 3940
1587 1588
1587 1589
1587 1590
1587 1591
1588 1589
1588 1590
1588 1591
1588 1592
1589 1590
1589 1591
1589 1592
1589 1593
1590 1591
1590 1593
1590 1594
1590 8789
1591 1592
1591 1593
1591 1594
1591 1595
1592 1593
1592 1594
1592 1595
1592 1596
1593 1594
1593 1595
1593 1596
1593 1597
1594 1596
1594 1598
1594 3068
1595 1596
1595 1597
1595 1598
1595 1599
1595 3466
1596 1597
1596 1598
1596 1599
1596 1600
1597 1599
1597 1600
1597 1601
1597 4199
1598 1600
1598 1601
1598 1602
1598 5864
1599 1600
1599 1601
1599 1602
1599 1603
1600 1601
1600 1602
1600 1603
1600 1604
1601 1603
1601 1604
1601 1605
1601 9063
1602 1603
1602 1604
1602 1605
1602 1606
1603 1604
1603 1605
1603 1606
1603 1607
1604 1605
1604 1608
1604 5233
1604 5366
1604 3016
1604 6187
1605 1608
1605 1609
1605 4732
1606 1607
1606 1609
1606 1610
1606 3620
1606 9604
1607 1608
1607 1609
1607 1610
1607 1611
1608 1609
1608 1610
1608 1611
1608 2699
1609 1610
1609 1611
1609 1612
1609 1613
1610 1611
1610 1612
1610 1613
1610 1614
1610 7110
1611 1612
1611 1613
1611 1614
1611 1615
1612 1613
1612 1614
1612 1615
1612 2885
1613 1614
1613 1616
1613 1617
1613 8997
1613 4338
1614 1615
1614 1616
1614 1617
1614 1618
1614 8830
1615 1617
1615 1618
1615 1619
1615 1980
1615 9239
1615 5322
1616 1618
1616 1619
1616 1620
1616 9603
1616 8005
1617 1618
1617 1619
1617 1620
1617 1621
1618 1619
1618 1620
1618 1621
1618 1622
1619 1620
1619 1621
1619 6094
1619 9366
1620 1621
1620 1622
1620 1623
1620 1624
1621 1622
1621 1623
1621 1624
1621 1625
1622 1623
1622 1624
1622 1625
1622 1626
1622 4896
1623 1624
1623 1625
1623 1626
1623 1627
1624 1626
1624 1627
1624 1628
1624 9931
1625 1626
1625 1627
1625 1628
1625 2155
1625 6453
1626 1627
1626 1628
1626 1629
1626 9317
1627 1628
1627 1629
1627 1630
1627 1631
1628 1629
1628 1630
1628 1631
1628 1632
1629 1630
1629 1631
1629 1632
1629 1633
1630 1632
1630 1633
1630 1634
1630 8118
1631 1633
1631 1634
1631 1635
1631 5176
1632 1633
1632 1634
1632 1635
1632 1636
1633 1634
1633 1635
1633 1636
1633 1637
1634 1635
1634 1636
1634 1637
1634 1638
1635 1636
1635 1637
1635 1638
1635 8343
1636 1637
1636 1638
1636 1639
1636 1640
1637 1638
1637 1639
1637 1640
1637 1641
1638 1639
1638 1641
1638 1642
1638 4977
1639 1640
1639 2039
1639 3049
1640 1641
1640 1642
1640 1644
1640 8553
1641 1642
1641 1643
1641 1644
1641 1645
1641 2103
1642 1643
1642 1644
1642 1645
1642 1646
1643 1644
1643 1645
1643 1646
1643 1647
1643 6305
1644 1645
1644 1646
1644 1647
1644 1648
1645 1646
1645 1647
1645 1648
1645 1649
1646 1647
1646 1648
1646 1649
1646 1650
1646 3949
1647 1648
1647 1649
1647 1650
1647 1651
1648 1649
1648 1650
1648 1651
1648 2315
1648 1689
1649 1650
1649 1651
1649 1652
1649 1653
1650 1651
1650 1652
1650 1653
1650 7588
1650 9010
1651 1652
1651 1653
1651 1654
1651 1655
1651 3424
1652 1653
1652 1654
1652 1655
1652 1656
1653 1654
1653 1655
1653 1656
1653 1657
1653 3607
1654 1655
1654 1656
1654 1657
1654 1658
1654 6150
1654 2848
1654 3928
1655 1656
1655 1657
1655 1658
1655 5668
1656 1657
1656 1658
1656 1659
1656 1660
1656 1690
1657 1658
1657 1659
1657 1660
1657 1661
1658 1659
1658 1660
1658 1661
1658 1662
1659 1660
1659 1661
1659 1662
1659 1663
1660 1661
1660 1662
1660 1663
1660 6966
1660 7927
1661 1663
1661 1664
1661 1665
1661 6510
1662 1663
1662 1664
1662 1665
1662 1666
1663 1664
1663 1665
1663 1666
1663 1667
1664 1665
1664 1666
1664 1667
1664 1668
1665 1666
1665 1667
1665 1668
1665 1669
1666 1667
1666 1668
1666 1669
1667 1668
1667 1669
1667 1670
1667 1671
1668 1669
1668 1671
1668 3851
1668 6582
1668 3106
1669 1670
1669 1671
1669 1672
1669 1673
1670 1671
1670 1672
1670 1673
1670 1674
1671 1672
1671 1673
1671 1674
1671 1675
1672 1673
1672 1674
1672 1675
1672 1676
1673 1674
1673 1675
1673 1676
1673 1677
1674 1676
1674 1677
1674 1678
1674 3615
1675 1676
1675 1677
1675 1678
1675 1679
1676 1677
1676 1678
1676 1679
1676 1680
1676 7677
1677 1678
1677 1679
1677 1680
1677 1681
1678 1680
1678 1681
1678 1682
1679 1680
1679 1681
1679 1682
1679 1683
1679 9237
1680 1681
1680 1682
1680 1683
1680 1684
1681 1682
1681 1683
1681 1684
1681 1685
1681 5662
1682 1683
1682 1684
1682 1685
1682 1686
1683 1684
1683 1685
1683 1686
1684 1685
1684 1686
1684 1687
1684 1688
1685 1686
1685 1687
1685 1688
1685 1689
1686 1687
1686 1689
1686 1690
1686 5172
1686 4344
1687 1688
1687 1689
1687 1690
1687 1691
1688 1689
1688 1691
1688 1692
1688 4792
1689 1690
1689 1691
1689 1692
1689 1693
1690 1692
1690 1693
1690 1694
1691 1692
1691 1693
1691 1694
1691 1695
1692 1693
1692 1694
1692 1695
1692 2586
1693 1694
1693 1695
1693 1696
1693 1697
1694 1695
1694 1696
1694 1697
1694 1698
1695 1696
1695 1697
1695 1698
1695 1699
1696 1697
1696 1698
1696 1700
1696 9638
1697 1698
1697 1699
1697 1700
1697 1701
1697 9855
1698 1699
1698 1700
1698 1701
1698 7141
1698 6296
1699 1700
1699 1701
1699 1702
1699 1703
1699 6091
1700 1701
1700 1702
1700 1703
1700 1704
1700 5577
1701 1702
1701 1704
1701 1705
1701 8542
1702 1703
1702 1704
1702 1705
1702 1706
1702 8981
1703 1704
1703 1705
1703 1706
1703 7876
1704 1705
1704 1706
1704 1707
1704 1708
1705 1706
1705 1707
1705 1708
1705 1709
1706 1707
1706 1708
1706 1709
1706 1710
1707 1708
1707 1709
1707 1710
1707 1711
1708 1709
1708 1710
1708 1711
1708 1712
1709 1710
1709 1711
1709 1713
1709 8073
1710 1711
1710 1712
1710 1713
1710 1714
1711 1713
1711 1714
1711 1715
1711 2159
1712 1714
1712 1715
1712 1716
1712 1926
1713 1714
1713 1715
1713 1716
1713 1717
1714 1715
1714 1716
1714 1717
1714 1718
1714 9028
1715 1716
1715 1718
1715 1719
1715 7651
1716 1717
1716 1718
1716 1719
1716 1720
1716 8017
1717 1718
1717 1719
1717 1720
1717 1721
1718 1719
1718 1720
1718 1721
1718 1722
1718 9129
1719 1720
1719 1721
1719 1722
1719 1723
1720 1721
1720 1722
1720 1724
1720 5614
1721 1722
1721 1723
1721 1724
1721 1725
1722 1723
1722 1725
1722 1726
1722 7989
1723 1724
1723 1725
1723 1726
1723 1727
1723 4480
1724 1725
1724 1726
1724 1727
1724 1728
1724 3696
1725 1726
1725 1727
1725 1729
1725 7832
1726 1727
1726 1728
1726 1729
1726 1730
1727 1728
1727 1731
1727 5084
1727 2653
1728 1729
1728 1730
1728 1731
1728 2541
1729 1730
1729 1731
1729 1732
1729 1733
1730 1731
1730 1732
1730 1733
1730 1734
1730 9451
1731 1732
1731 1733
1731 1734
1731 1735
1732 1733
1732 1735
1732 1736
1732 7847
1733 1734
1733 1735
1733 1736
1733 1737
1733 5169
1734 1735
1734 1736
1734 1738
1735 1736
1735 1737
1735 1738
1735 1739
1736 1737
1736 1738
1736 1739
1736 1740
1737 1738
1737 1739
1737 1740
1737 7570
1738 1740
1738 1741
1738 1742
1738 3918
1739 1740
1739 1741
1739 1742
1739 1743
1740 1741
1740 1742
1740 1744
1741 1742
1741 1743
1741 1744
1741 1745
1742 1743
1742 1744
1742 1745
1742 1746
1742 2826
1743 1744
1743 1745
1743 1746
1743 1747
1744 1745
1744 1746
1744 1747
1744 1748
1744 9547
1745 1746
1745 1747
1745 1748
1745 1749
1746 1748
1746 1749
1746 1750
1746 5174
1747 1748
1747 1749
1747 1751
1748 1749
1748 1750
1748 1751
1748 1752
1749 1750
1749 1751
1749 1752
1749 1753
1750 1751
1750 1753
1750 1754
1750 3706
1750 9486
1751 1752
1751 1753
1751 1754
1751 1755
1752 1754
1752 1755
1752 1756
1752 9570
1752 4990
1752 6856
1752 8945
1753 1754
1753 1755
1753 1756
1753 8456
1754 1755
1754 1756
1754 1757
1754 1758
1754 8292
1755 1756
1755 1757
1755 1758
1755 6791
1756 1757
1756 1758
1756 1759
1756 1760
1757 1758
1757 1759
1757 1760
1757 1761
1758 1759
1758 1762
1758 3633
1759 1760
1759 1761
1759 1762
1759 1763
1760 1761
1760 1762
1760 1763
1760 1764
1761 1762
1761 1763
1761 1764
1761 1765
1762 1763
1762 1765
1762 1766
1762 6802
1763 1764
1763 1765
1763 1766
1763 1767
1763 5203
1764 1765
1764 1766
1764 1767
1764 1768
1764 8987
1765 1766
1765 1767
1765 1768
1765 1769
1765 5064
1766 1768
1766 1769
1766 1770
1767 1769
1767 1770
1767 9642
1767 9330
1768 1769
1768 1770
1768 1771
1768 1772
1769 1770
1769 1772
1769 1773
1769 7203
1770 1771
1770 1772
1770 1773
1770 1774
1770 9224
1771 1772
1771 1773
1771 1774
1771 1775
1771 5781
1772 1773
1772 1774
1772 1776
1772 9999
1773 1775
1773 1776
1773 1777
1773 9775
1774 1775
1774 1777
1774 1954
1775 1776
1775 1777
1775 1778
1775 5462
1775 3591
1776 1777
1776 1778
1776 1779
1776 1780
1777 1778
1777 1779
1777 1780
1777 1781
1777 7333
1778 1779
1778 1780
1778 1781
1778 1782
1779 1780
1779 1781
1779 1782
1779 1783
1779 3145
1780 1782
1780 1783
1780 1784
1780 9525
1780 3748
1781 1782
1781 1783
1781 1784
1781 1785
1781 7994
1782 1783
1782 1786
1782 8069
1783 1784
1783 1785
1783 1786
1783 1787
1783 5904
1783 5316
1784 1785
1784 1786
1784 1788
1784 2216
1785 1786
1785 1787
1785 1788
1785 1789
1785 4943
1786 1787
1786 1788
1786 1789
1786 1790
1787 1788
1787 1790
1787 1791
1787 2548
1788 1789
1788 1790
1788 1791
1788 1792
1788 6916
1789 1790
1789 1791
1789 1792
1789 2542
1790 1791
1790 1792
1790 1793
1790 1794
1791 1792
1791 1793
1791 1794
1791 1795
1792 1793
1792 1794
1792 1795
1792 1796
1792 3383
1793 1795
1793 1796
1793 1797
1793 8354
1794 1795
1794 1796
1794 1797
1794 1798
1795 1796
1795 1798
1795 1799
1795 5930
1796 1797
1796 1798
1796 1799
1796 1800
1797 1798
1797 1799
1797 1800
1797 1801
1797 5648
1798 1799
1798 1800
1798 1801
1798 1802
1798 3978
1799 1800
1799 1801
1799 1802
1799 1803
1800 1801
1800 1802
1800 1803
1800 1804
1800 9211
1801 1802
1801 1803
1801 1804
1801 9975
1801 3473
1802 1804
1802 1805
1802 1806
1802 8319
1803 1805
1803 1806
1803 1807
1803 3309
1803 2504
1804 1805
1804 1806
1804 1807
1804 1808
1804 2349
1804 4445
1805 1806
1805 1807
1805 1808
1805 1809
1805 3934
1806 1807
1806 1808
1806 1809
1806 1810
1807 1808
1807 1809
1807 1810
1807 1811
1807 8584
1808 1809
1808 1810
1808 1812
1808 7537
1809 1811
1809 1812
1809 1813
1810 1811
1810 1812
1810 1813
1810 1814
1810 6717
1811 1812
1811 1813
1811 1814
1811 1815
1812 1813
1812 1814
1812 1815
1812 1816
1813 1814
1813 1815
1813 1816
1813 1817
1813 9529
1814 1815
1814 1816
1814 1817
1814 1818
1814 3026
1814 8444
1815 1816
1815 1817
1815 1818
1815 1819
1815 8439
1816 1817
1816 1818
1816 1819
1816 3230
1816 9787
1817 1818
1817 1819
1817 1820
1817 1821
1818 1820
1818 1821
1818 1822
1818 8257
1819 1821
1819 1822
1819 1823
1819 2816
1820 1821
1820 1822
1820 1823
1820 1824
1820 2242
1821 1822
1821 1823
1821 1824
1821 1825
1821 9633
1822 1823
1822 1824
1822 1825
1822 1826
1823 1824
1823 1825
1823 1826
1823 6336
1824 1825
1824 1826
1824 1827
1824 1828
1825 1826
1825 1827
1825 1828
1825 1829
1826 1827
1826 1828
1826 1829
1826 1830
1827 1828
1827 1829
1827 1830
1827 1831
1828 1829
1828 1830
1828 1831
1828 4648
1829 1830
1829 1831
1829 1832
1829 1833
1830 1831
1830 1832
1830 1833
1830 1834
1830 5298
1831 1832
1831 1833
1831 1834
1831 1835
1831 2588
1832 1833
1832 1834
1832 1835
1832 1836
1832 9410
1833 1834
1833 1835
1833 1836
1833 1837
1834 1835
1834 1836
1834 1837
1834 1838
1835 1836
1835 1837
1835 1838
1835 1839
1836 1837
1836 1838
1836 1839
1836 1840
1837 1838
1837 1839
1837 1840
1837 1841
1838 1840
1838 1841
1838 1842
1839 1841
1839 1842
1839 1843
1839 8482
1840 1841
1840 1842
1840 1843
1840 2748
1841 1842
1841 1843
1841 1845
1841 8201
1842 1843
1842 1844
1842 1845
1842 1846
1843 1844
1843 1845
1843 1846
1843 1847
1844 1845
1844 1846
1844 1847
1844 1848
1844 7210
1845 1846
1845 1847
1845 1848
1845 1849
1846 1847
1846 1848
1846 1849
1846 1850
1846 5243
1847 1848
1847 1849
1847 1850
1847 1851
1847 2077
1848 1849
1848 1850
1848 1851
1848 1852
1848 3771
1848 4540
1849 1850
1849 1851
1849 1852
1849 1853
1850 1851
1850 1852
1850 1853
1850 2126
1851 1852
1851 1853
1851 1854
1851 1855
1851 3373
1852 1853
1852 1854
1852 1855
1852 1856
1853 1854
1853 1855
1853 1856
1853 1857
1853 6531
1854 1855
1854 1856
1854 1857
1854 1858
1855 1856
1855 1857
1855 1859
1855 3805
1855 9501
1856 1858
1856 1859
1856 1860
1856 5128
1857 1860
1857 1861
1857 4708
1857 6322
1857 3338
1858 1859
1858 1860
1858 1861
1858 1862
1859 1860
1859 1861
1859 1862
1859 1863
1860 1861
1860 1862
1860 1863
1860 1864
1861 1862
1861 1863
1861 1864
1861 1865
1862 1864
1862 1865
1862 1866
1862 3302
1863 1864
1863 1865
1863 1866
1863 2945
1864 1865
1864 1866
1864 1867
1864 1868
1864 5814
1865 1866
1865 1867
1865 1868
1865 1869
1866 1867
1866 1869
1866 1870
1866 6485
1866 6694
1867 1869
1867 1870
1867 1871
1867 9991
1868 1869
1868 1870
1868 1871
1868 1872
1869 1870
1869 1871
1869 1872
1869 1873
1869 2029
1870 1871
1870 1872
1870 1873
1870 1874
1870 8933
1871 1872
1871 1873
1871 1874
1871 8207
1872 1873
1872 1874
1872 1875
1872 1876
1873 1874
1873 1875
1873 1876
1873 1877
1874 1875
1874 1876
1874 1877
1874 1878
1875 1876
1875 1877
1875 1878
1875 1879
1875 9620
1875 9806
1876 1877
1876 1878
1876 1879
1876 3433
1877 1878
1877 1879
1877 1881
1877 4908
1878 1879
1878 1880
1878 1881
1878 1882
1879 1880
1879 1881
1879 1882
1879 1883
1879 3069
1880 1881
1880 1882
1880 1883
1880 1884
1881 1882
1881 1884
1881 1885
1881 9833
1882 1883
1882 1884
1882 1885
1882 3275
1882 7971
1883 1884
1883 1885
1883 1886
1883 1887
1884 1885
1884 1886
1884 1887
1884 1888
1885 1886
1885 1887
1885 1888
1885 1889
1886 1887
1886 1888
1886 1889
1886 1890
1887 1888
1887 1889
1887 1890
1887 1891
1888 1889
1888 1890
1888 1891
1888 1892
1888 9877
1889 1890
1889 1891
1889 1892
1889 1893
1890 1892
1890 1893
1890 1894
1890 6205
1891 1892
1891 1893
1891 1894
1891 9463
1892 1893
1892 1894
1892 1895
1892 6564
1893 1894
1893 1895
1893 1896
1893 1897
1894 1895
1894 1896
1894 1897
1894 1898
1895 1896
1895 1897
1895 1898
1895 1899
1896 1897
1896 1898
1896 1899
1896 1900
1896 7023
1896 8698
1897 1899
1897 1900
1897 1901
1898 1899
1898 1900
1898 1901
1898 1902
1899 1901
1899 1902
1899 1903
1899 2759
1900 1901
1900 1902
1900 1903
1900 1904
1900 9239
1901 1902
1901 1905
1901 7941
1901 7038
1902 1903
1902 1904
1902 1905
1902 1906
1903 1904
1903 1905
1903 1906
1903 1907
1903 2312
1903 7476
1904 1905
1904 1906
1904 1907
1904 8989
1905 1906
1905 1908
1905 1909
1906 1907
1906 1908
1906 1909
1906 1910
1907 1908
1907 1909
1907 1910
1907 1911
1908 1909
1908 1910
1908 1911
1908 1912
1909 1910
1909 1911
1909 1912
1909 1913
1910 1911
1910 1912
1910 1914
1910 4299
1911 1912
1911 1913
1911 1914
1911 1915
1911 6437
1912 1913
1912 1915
1912 1916
1912 3087
1913 1914
1913 1915
1913 1916
1913 1917
1914 1915
1914 1916
1914 1917
1914 1918
1915 1916
1915 1917
1915 1918
1915 1919
1916 1917
1916 1919
1916 1920
1916 4667
1917 1918
1917 1919
1917 1920
1917 1921
1918 1919
1918 1920
1918 1921
1918 7211
1919 1920
1919 1921
1919 1922
1919 1923
1919 2303
1920 1921
1920 1923
1920 1924
1920 7095
1921 1922
1921 1923
1921 1925
1921 9643
1922 1924
1922 1925
1922 1926
1922 3417
1923 1924
1923 1925
1923 1926
1923 1927
1924 1925
1924 1926
1924 1927
1924 1928
1925 1926
1925 1927
1925 1928
1925 1929
1926 1927
1926 1928
1926 1930
1927 1929
1927 1930
1927 1931
1927 8145
1928 1930
1928 1931
1928 1932
1929 1931
1929 1932
1929 1933
1929 8639
1930 1931
1930 1932
1930 1933
1930 1934
1931 1932
1931 1933
1931 1934
1931 1935
1932 1933
1932 1934
1932 1935
1932 1936
1932 2178
1933 1934
1933 1935
1933 1936
1933 1937
1934 1935
1934 1936
1934 1937
1934 1938
1934 5943
1935 1936
1935 1937
1935 1938
1935 1939
1936 1937
1936 1938
1936 1939
1936 1940
1937 1938
1937 1939
1937 1940
1937 1941
1937 5856
1938 1939
1938 1940
1938 1941
1938 1942
1938 3927
1939 1940
1939 1943
1939 7300
1939 3986
1940 1941
1940 1942
1940 1943
1940 1944
1940 9591
1941 1943
1941 1944
1941 1945
1941 4465
1942 1943
1942 1944
1942 1945
1942 1946
1943 1944
1943 1945
1943 1946
1943 1947
1944 1946
1944 1947
1944 1948
1944 4218
1945 1947
1945 1948
1945 1949
1945 8548
1945 7619
1945 3538
1946 1947
1946 1948
1946 1949
1946 1950
1947 1948
1947 1949
1947 1950
1947 1951
1947 6353
1947 8869
1948 1949
1948 1950
1948 1951
1948 1952
1949 1950
1949 1951
1949 1952
1949 1953
1949 3825
1950 1951
1950 1952
1950 1953
1950 5648
1951 1952
1951 1953
1951 1954
1951 1955
1952 1953
1952 1954
1952 1955
1952 1956
1953 1954
1953 1955
1953 1956
1953 1957
1954 1956
1954 1957
1954 1958
1954 8585
1954 9474
1955 1956
1955 1958
1955 1959
1955 7976
1956 1957
1956 1958
1956 1959
1956 1960
1957 1958
1957 1959
1957 1960
1957 1961
1958 1959
1958 1960
1958 1961
1958 8212
1959 1961
1959 1962
1959 1963
1959 6591
1960 1961
1960 1962
1960 1963
1960 1985
1961 1963
1961 1964
1961 1965
1961 3360
1961 8329
1962 1963
1962 1965
1962 1966
1962 8399
1962 7174
1963 1964
1963 1965
1963 1966
1963 1967
1964 1965
1964 1966
1964 1967
1964 1968
1964 6698
1964 8358
1965 1966
1965 1967
1965 1968
1965 1969
1965 8427
1965 9704
1966 1967
1966 1968
1966 1970
1966 7807
1967 1968
1967 1969
1967 1970
1967 1971
1968 1969
1968 1970
1968 1971
1968 1972
1968 4380
1969 1970
1969 1971
1969 1972
1969 1973
1970 1972
1970 1973
1970 1974
1970 2383
1971 1972
1971 1974
1971 1975
1971 8133
1972 1973
1972 1974
1972 1975
1972 1976
1973 1974
1973 1975
1973 1976
1973 1977
1974 1975
1974 1976
1974 1977
1974 1978
1974 9906
1975 1976
1975 1977
1975 1978
1975 1979
1976 1977
1976 1978
1976 1980
1976 3620
1977 1978
1977 1979
1977 1980
1977 1981
1977 8565
1978 1979
1978 1981
1978 6587
1978 9515
1979 1980
1979 1981
1979 1982
1979 1983
1980 1982
1980 1983
1980 1984
1980 6656
1981 1982
1981 1983
1981 1984
1981 1985
1981 9093
1982 1983
1982 1985
1982 1986
1982 7883
1982 9537
1983 1984
1983 1985
1983 1987
1984 1985
1984 1986
1984 1987
1984 1988
1985 1986
1985 1987
1985 1988
1985 1989
1986 1987
1986 1988
1986 1989
1986 1990
1987 1988
1987 1989
1987 1990
1987 1991
1988 1989
1988 1990
1988 1991
1988 1992
1989 1990
1989 1991
1989 1992
1989 1993
1990 1991
1990 1992
1990 1993
1990 1994
1991 1992
1991 1993
1991 1994
1991 1995
1991 8677
1992 1994
1992 1995
1992 1996
1992 4085
1993 1994
1993 1995
1993 1996
1993 1997
1994 1995
1994 1996
1994 1997
1994 1998
1994 6067
1995 1996
1995 1997
1995 1998
1995 1999
1996 1997
1996 1998
1996 1999
1996 2000
1997 1998
1997 1999
1997 2000
1997 2001
1997 5542
1998 1999
1998 2000
1998 2001
1998 2002
1999 2000
1999 2001
1999 2003
1999 4933
2000 2001
2000 2002
2000 2003
2000 2004
2001 2002
2001 2003
2001 2004
2001 2005
2001 2079
2002 2003
2002 2004
2002 2005
2002 2006
2003 2004
2003 2005
2003 2006
2003 2007
2004 2005
2004 2006
2004 2007
2004 2008
2005 2006
2005 2007
2005 2008
2005 2009
2006 2007
2006 2008
2006 2009
2006 2010
2007 2009
2007 2010
2007 2011
2007 3236
2008 2009
2008 2010
2008 2011
2008 2012
2009 2010
2009 2011
2009 2012
2009 8946
2010 2011
2010 2013
2010 2014
2011 2012
2011 2013
2011 2014
2011 2015
2012 2013
2012 2014
2012 2015
2012 2016
2013 2014
2013 2015
2013 2016
2013 2017
2013 5933
2013 6126
2013 8221
2013 3186
2014 2015
2014 2016
2014 2017
2014 2018
2015 2016
2015 2017
2015 2018
2015 2019
2016 2018
2016 2019
2016 2020
2017 2018
2017 2019
2017 2020
2017 2021
2018 2019
2018 2020
2018 2022
2019 2020
2019 2021
2019 2022
2019 2023
2020 2021
2020 2022
2020 2023
2020 2024
2020 8384
2021 2022
2021 2023
2021 2024
2021 2025
2022 2023
2022 2025
2022 2026
2022 9851
2023 2025
2023 2026
2023 2027
2023 3169
2024 2025
2024 2026
2024 2027
2024 2028
2025 2026
2025 2027
2025 2028
2025 2029
2025 8426
2026 2028
2026 2029
2026 2030
2026 4838
2027 2029
2027 2031
2027 4943
2027 2028
2028 2029
2028 2030
2028 2031
2028 2032
2029 2031
2029 2033
2029 7207
2030 2031
2030 2033
2030 6410
2030 5897
2031 2032
2031 2034
2031 2035
2032 2033
2032 2034
2032 2035
2032 2036
2033 2034
2033 2035
2033 2036
2033 2037
2034 2035
2034 2036
2034 2037
2034 2038
2035 2036
2035 2037
2035 2038
2035 2039
2036 2037
2036 2038
2036 2039
2036 2040
2037 2038
2037 2039
2037 2040
2037 2041
2038 2039
2038 2040
2038 2041
2038 2042
2039 2041
2039 2042
2039 2043
2039 5025
2039 5866
2040 2041
2040 2042
2040 2043
2040 2044
2041 2042
2041 2043
2041 3529
2041 8043
2042 2043
2042 2044
2042 2045
2042 2046
2043 2044
2043 2045
2043 2047
2043 7013
2043 8981
2044 2045
2044 2046
2044 2047
2044 2048
2044 4876
2045 2046
2045 2047
2045 2048
2046 2047
2046 2048
2046 2049
2046 2050
2046 4525
2047 2048
2047 2049
2047 2050
2047 2051
2048 2049
2048 2050
2048 2051
2048 2052
2049 2050
2049 2051
2049 2053
2049 2094
2050 2051
2050 2052
2050 2054
2050 9164
2051 2052
2051 2053
2051 2054
2051 2055
2052 2053
2052 2054
2052 2055
2052 2056
2052 8939
2053 2054
2053 2055
2053 2056
2053 4372
2053 5859
2054 2056
2054 2057
2054 2058
2055 2056
2055 2057
2055 2058
2055 2059
2055 7306
2056 2057
2056 2058
2056 3229
2056 3120
2057 2058
2057 2059
2057 2060
2057 2061
2058 2059
2058 2060
2058 2062
2058 3693
2059 2060
2059 2061
2059 2062
2059 2063
2060 2061
2060 2062
2060 2063
2060 2064
2060 7689
2061 2062
2061 2063
2061 2064
2061 2065
2062 2064
2062 2065
2062 2066
2062 3849
2063 2064
2063 2065
2063 2067
2063 7861
2064 2065
2064 2066
2064 2067
2064 2068
2064 2710
2064 4684
2065 2066
2065 2067
2065 2068
2065 2069
2066 2067
2066 2068
2066 2069
2066 2070
2067 2068
2067 2069
2067 2070
2067 2071
2067 6520
2068 2069
2068 2070
2068 2071
2069 2070
2069 2072
2069 2073
2069 2838
2070 2071
2070 2072
2070 2073
2070 2074
2071 2072
2071 2073
2071 2074
2071 2075
2071 3809
2071 8910
2072 2073
2072 2074
2072 2075
2072 2076
2073 2074
2073 2075
2073 2077
2073 4785
2074 2075
2074 2076
2074 2077
2074 3527
2075 2076
2075 2077
2075 2078
2075 2079
2076 2077
2076 2079
2076 2080
2076 6958
2077 2078
2077 2079
2077 8740
2077 2777
2078 2079
2078 2080
2078 2081
2078 2082
2079 2080
2079 2081
2079 2083
2080 2081
2080 2082
2080 2083
2080 2084
2080 7369
2081 2082
2081 2083
2081 2084
2081 2085
2082 2083
2082 2084
2082 2085
2082 2086
2083 2084
2083 2086
2083 2087
2083 2768
2083 8670
2084 2085
2084 2086
2084 2087
2085 2087
2085 2088
2085 2089
2085 3148
2086 2087
2086 2088
2086 2089
2086 2090
2087 2088
2087 2089
2087 2090
2087 2091
2088 2089
2088 2090
2088 2091
2088 2092
2088 6420
2089 2090
2089 2092
2089 2093
2089 8224
2090 2091
2090 2092
2090 2093
2090 2094
2091 2092
2091 2093
2091 2094
2091 2095
2091 5675
2092 2093
2092 2094
2092 2095
2092 2096
2092 3136
2093 2094
2093 2095
2093 2096
2093 2097
2094 2095
2094 2096
2094 2097
2094 2098
2095 2096
2095 2097
2095 2098
2095 2099
2096 2097
2096 2098
2096 2099
2096 2100
2096 7795
2097 2098
2097 2100
2097 2101
2097 2105
2098 2099
2098 2100
2098 2101
2098 2102
2099 2100
2099 2101
2099 2102
2099 2103
2100 2101
2100 2102
2100 2103
2100 4707
2101 2102
2101 2103
2101 2105
2101 5039
2102 2103
2102 2104
2102 2105
2102 2106
2102 5202
2103 2104
2103 2106
2103 2107
2104 2105
2104 2106
2104 5255
2104 5390
2104 4812
2104 6297
2105 2106
2105 2109
2105 6061
2105 5391
2106 2107
2106 2108
2106 2109
2106 2110
2107 2108
2107 2109
2107 2110
2107 2111
2107 5950
2108 2110
2108 2111
2108 2112
2108 2707
2109 2110
2109 2112
2109 2113
2109 7902
2110 2111
2110 2113
2110 2114
2110 2597
2110 3641
2111 2112
2111 2113
2111 2114
2111 2115
2112 2113
2112 2114
2112 2116
2112 3026
2112 2666
2112 2955
2113 2114
2113 2115
2113 2116
2113 2117
2114 2115
2114 2116
2114 2117
2114 5518
2115 2116
2115 2117
2115 2118
2115 2119
2115 3840
2116 2117
2116 2118
2116 2119
2116 2120
2117 2119
2117 2120
2117 2121
2117 8423
2118 2119
2118 2120
2118 2121
2118 2122
2119 2120
2119 2121
2119 2123
2119 6348
2120 2122
2120 2123
2120 2124
2120 6695
2121 2122
2121 2123
2121 2124
2121 2125
2121 9400
2122 2123
2122 2124
2122 2125
2122 2126
2123 2124
2123 2125
2123 2126
2123 2127
2124 2125
2124 4464
2124 9746
2125 2126
2125 2127
2125 2129
2125 7921
2125 6985
2125 3644
2126 2127
2126 2128
2126 2129
2126 2130
2127 2129
2127 2130
2127 2131
2127 4066
2128 2129
2128 2130
2128 2131
2128 2132
2129 2130
2129 2131
2129 2132
2130 2131
2130 2132
2130 2133
2130 2134
2131 2132
2131 2133
2131 2134
2131 2135
2132 2133
2132 2134
2132 2135
2132 2136
2133 2134
2133 2135
2133 2136
2133 2137
2134 2135
2134 2136
2134 2137
2134 2138
2135 2136
2135 2137
2135 2138
2135 2139
2136 2137
2136 2138
2136 2139
2136 2140
2137 2138
2137 2139
2137 2140
2137 2141
2138 2140
2138 2141
2138 5121
2138 7540
2139 2140
2139 2141
2139 2142
2139 2143
2140 2141
2140 2142
2140 2143
2140 2144
2141 2142
2141 2143
2141 2144
2141 2145
2142 2143
2142 2144
2142 2145
2142 2146
2143 2144
2143 2145
2143 2146
2143 2147
2144 2145
2144 2147
2144 3848
2144 3201
2145 2146
2145 2147
2145 2148
2145 2149
2146 2147
2146 2148
2146 2149
2146 2150
2147 2148
2147 2149
2147 2150
2147 2151
2148 2149
2148 2150
2148 2151
2148 2152
2149 2150
2149 2151
2149 2152
2149 2153
2150 2152
2150 2153
2150 2154
2150 3341
2151 2152
2151 2153
2151 2154
2151 3926
2152 2153
2152 2154
2152 2155
2152 2156
2152 9089
2152 8327
2153 2154
2153 2155
2153 2156
2153 2157
2154 2156
2154 2157
2154 2158
2154 4617
2154 2564
2155 2158
2155 2159
2155 5436
2156 2157
2156 2158
2156 2159
2156 2160
2157 2158
2157 2159
2157 2160
2157 2161
2158 2159
2158 2161
2158 2162
2158 9248
2159 2161
2159 2162
2159 2163
2159 7334
2159 6350
2160 2161
2160 2162
2160 2163
2160 2164
2161 2162
2161 2164
2161 2165
2161 4285
2162 2163
2162 2164
2162 2166
2162 6815
2163 2164
2163 2165
2163 2166
2163 2167
2164 2165
2164 2166
2164 2167
2164 2168
2165 2166
2165 2167
2165 2168
2165 2169
2166 2167
2166 2168
2166 9419
2166 4489
2167 2168
2167 2169
2167 2170
2167 2171
2167 7948
2168 2169
2168 2170
2168 2171
2168 7875
2168 6376
2169 2171
2169 2172
2169 2173
2169 4321
2169 4786
2170 2171
2170 2172
2170 2173
2170 2174
2171 2172
2171 2173
2171 2174
2171 6084
2172 2173
2172 2174
2172 2175
2172 2176
2172 2517
2173 2175
2173 2176
2173 2177
2173 2477
2173 5198
2174 2175
2174 2176
2174 2177
2174 2178
2174 8081
2175 2177
2175 2178
2175 2179
2175 2423
2176 2177
2176 2178
2176 2179
2176 2180
2177 2178
2177 2179
2177 2180
2177 8060
2177 4362
2178 2180
2178 2181
2178 2182
2178 3487
2179 2180
2179 2181
2179 2182
2179 2183
2180 2182
2180 2183
2180 2184
2180 9326
2180 7801
2181 2182
2181 2183
2181 2184
2181 2185
2182 2184
2182 2185
2182 2186
2182 2689
2183 2184
2183 2185
2183 2186
2183 2187
2183 5383
2184 2186
2184 2187
2184 5460
2184 9979
2185 2186
2185 2187
2185 2188
2185 2189
2185 4886
2185 4162
2185 9208
2186 2187
2186 2188
2186 2189
2186 2190
2186 2572
2186 6044
2186 7811
2187 2188
2187 2189
2187 2190
2187 2191
2187 6189
2188 2189
2188 2190
2188 2191
2188 2192
2189 2190
2189 2191
2189 2192
2189 2193
2189 5373
2189 3803
2190 2191
2190 2192
2190 2193
2190 2194
2191 2192
2191 2193
2191 2194
2191 3192
2191 7370
2192 2193
2192 2194
2192 2195
2192 2196
2193 2194
2193 2196
2193 2197
2193 8397
2194 2195
2194 2196
2194 2197
2194 2198
2194 5400
2194 6893
2195 2196
2195 2197
2195 2199
2195 7086
2196 2198
2196 2199
2196 2200
2197 2198
2197 2199
2197 2200
2197 2201
2198 2199
2198 2200
2198 2201
2198 2202
2199 2200
2199 2201
2199 2202
2199 2203
2199 4721
2199 2453
2200 2201
2200 2202
2200 2203
2200 7999
2200 6732
2200 7546
2201 2202
2201 2203
2201 2204
2201 3119
2202 2203
2202 2204
2202 2205
2202 2206
2202 8495
2203 2204
2203 2205
2203 2206
2203 2207
2204 2205
2204 2206
2204 2207
2204 6711
2205 2206
2205 2207
2205 2208
2205 2209
2206 2207
2206 2208
2206 2209
2206 2210
2207 2208
2207 2209
2207 2210
2207 2211
2207 9518
2207 7796
2208 2209
2208 2210
2208 2211
2208 2212
2208 2430
2209 2210
2209 2211
2209 2212
2209 2213
2209 6697
2210 2212
2210 2213
2210 2214
2210 6839
2210 9890
2210 9390
2211 2213
2211 2214
2211 2215
2212 2213
2212 2214
2212 2215
2212 2216
2213 2214
2213 2215
2213 2216
2213 2217
2214 2215
2214 2216
2214 2217
2214 2218
2215 2216
2215 2217
2215 2218
2215 2219
2216 2217
2216 2219
2216 2220
2216 6486
2216 8083
2217 2218
2217 2219
2217 2220
2217 2221
2218 2219
2218 2220
2218 2221
2218 2222
2218 7526
2219 2220
2219 2222
2219 2223
2219 5221
2220 2221
2220 2222
2220 2223
2220 2224
2221 2222
2221 2223
2221 2224
2221 2225
2221 8891
2222 2223
2222 2224
2222 2225
2222 2226
2223 2224
2223 2225
2223 2226
2223 2227
2223 2757
2224 2225
2224 2226
2224 2228
2224 8273
2225 2226
2225 2227
2225 2228
2226 2227
2226 2228
2226 2229
2226 2230
2227 2228
2227 2229
2227 2230
2227 2231
2228 2229
2228 2230
2228 2231
2228 2232
2229 2230
2229 2231
2229 2232
2229 6701
2230 2231
2230 2232
2230 2234
2230 3387
2230 4775
2231 2232
2231 2234
2231 4171
2231 3942
2232 2233
2232 2234
2232 2235
2232 2236
2233 2234
2233 2235
2233 2236
2233 2237
2233 6658
2234 2235
2234 2236
2234 2237
2234 2238
2235 2237
2235 2238
2235 2239
2235 4100
2236 2237
2236 2239
2236 2240
2237 2238
2237 2239
2237 2240
2237 2241
2237 6009
2238 2239
2238 2240
2238 2241
2238 2242
2239 2240
2239 2241
2239 2242
2239 2655
2239 7930
2240 2241
2240 2242
2240 2243
2240 2244
2241 2242
2241 2243
2241 2244
2241 2245
2242 2245
2242 2246
2242 2951
2243 2244
2243 2245
2243 2246
2243 2247
2244 2245
2244 2246
2244 2247
2244 2248
2244 7500
2245 2246
2245 2247
2245 2248
2245 2249
2246 2247
2246 2248
2246 2249
2246 2250
2247 2248
2247 2249
2247 2250
2247 2251
2248 2249
2248 2250
2248 2251
2248 2252
2248 3885
2248 7235
2249 2250
2249 2251
2249 2252
2249 2253
2249 8436
2250 2251
2250 2252
2250 2253
2250 2254
2251 2252
2251 2253
2251 2254
2251 2255
2252 2253
2252 2254
2252 2255
2252 2256
2253 2254
2253 2255
2253 2256
2253 2257
2254 2255
2254 2256
2254 2257
2254 2258
2255 2256
2255 2257
2255 2258
2256 2257
2256 2258
2256 2259
2256 2260
2257 2258
2257 2259
2257 2260
2257 2261
2258 2259
2258 2260
2258 2262
2258 8704
2259 2261
2259 2262
2259 2263
2259 5621
2260 2261
2260 2262
2260 2263
2261 2262
2261 2263
2261 2265
2261 9714
2262 2263
2262 2264
2262 2265
2262 2266
2263 2265
2263 2266
2263 2267
2263 7930
2264 2265
2264 2266
2264 2267
2264 2268
2265 2267
2265 2268
2265 2269
2265 4594
2266 2267
2266 2268
2266 2269
2266 2270
2267 2268
2267 2269
2267 2270
2267 2271
2267 8589
2267 5568
2268 2269
2268 2270
2268 2271
2268 2272
2268 3550
2269 2270
2269 2271
2269 2272
2269 2273
2269 8853
2269 9113
2270 2271
2270 2273
2270 2274
2270 9223
2271 2272
2271 2274
2271 2275
2271 4639
2271 8266
2272 2273
2272 2274
2272 2275
2272 2276
2272 9784
2273 2274
2273 2275
2273 2276
2273 2277
2274 2275
2274 2277
2274 8278
2275 2276
2275 2277
2275 2278
2275 2279
2275 9281
2276 2277
2276 2278
2276 2279
2276 2280
2276 9792
2277 2278
2277 2279
2277 2281
2277 6015
2278 2279
2278 2280
2278 2282
2278 6050
2279 2280
2279 2283
2279 4693
2279 5933
2280 2281
2280 2282
2280 2283
2280 2284
2280 9055
2281 2282
2281 2284
2281 2285
2281 9201
2281 6527
2282 2283
2282 2284
2282 2285
2282 2286
2282 3210
2283 2284
2283 2287
2283 3378
2283 8874
2284 2285
2284 2286
2284 2287
2284 2288
2285 2288
2285 7364
2285 7007
2286 2289
2286 9976
2286 3026
2286 5364
2287 2288
2287 2289
2287 2291
2287 3818
2287 5717
2287 3802
2288 2289
2288 2290
2288 2291
2288 2292
2288 2320
2288 5850
2289 2291
2289 2292
2289 2293
2289 5556
2290 2291
2290 2292
2290 2293
2290 2294
2291 2292
2291 2293
2291 2294
2291 2295
2292 2293
2292 2294
2292 2295
2292 2296
2293 2294
2293 2295
2293 2296
2293 2297
2293 6592
2294 2295
2294 2296
2294 2297
2294 2298
2294 3147
2295 2296
2295 2297
2295 2298
2295 2299
2296 2297
2296 2298
2296 2299
2296 2300
2297 2298
2297 2299
2297 2300
2297 2301
2298 2299
2298 2300
2298 2301
2298 2302
2298 8467
2299 2300
2299 2301
2299 2302
2299 2303
2300 2301
2300 2302
2300 2304
2300 6203
2300 3099
2301 2302
2301 2303
2301 2304
2301 2305
2302 2303
2302 2304
2302 2305
2302 2306
2303 2305
2303 2307
2304 2305
2304 2306
2304 2307
2304 2308
2305 2306
2305 2307
2305 2308
2305 3422
2306 2308
2306 2309
2306 3205
2307 2308
2307 2309
2307 2310
2307 2311
2308 2309
2308 2310
2308 2311
2308 2312
2308 6593
2309 2310
2309 2311
2309 2312
2309 2313
2310 2311
2310 2312
2310 2313
2310 2314
2310 3308
2311 2312
2311 2313
2311 2314
2311 2315
2312 2314
2312 2315
2312 2733
2313 2314
2313 2315
2313 2316
2313 2317
2314 2315
2314 2316
2314 2317
2314 2318
2314 7394
2315 2317
2315 2318
2315 2319
2316 2317
2316 2318
2316 2319
2316 2320
2317 2318
2317 2319
2317 2321
2317 2512
2318 2319
2318 2320
2318 2321
2318 2322
2319 2320
2319 2323
2319 7805
2319 5320
2320 2321
2320 2322
2320 2324
2321 2323
2321 2324
2321 2325
2321 7617
2322 2323
2322 2324
2322 2326
2322 3979
2323 2324
2323 2325
2323 2326
2323 2327
2323 4498
2324 2325
2324 2326
2324 2327
2324 2328
2325 2326
2325 2327
2325 2328
2325 2329
2326 2327
2326 2328
2326 2329
2326 2330
2326 4300
2327 2328
2327 2329
2327 2330
2327 2331
2328 2329
2328 2330
2328 2331
2328 2332
2328 4861
2329 2330
2329 2331
2329 2332
2329 2333
2330 2331
2330 2332
2330 2333
2330 2334
2331 2332
2331 2333
2331 2335
2331 3372
2332 2333
2332 2334
2332 2335
2332 2336
2332 7617
2333 2334
2333 2335
2333 2336
2333 7189
2334 2335
2334 2336
2334 2337
2334 2338
2335 2336
2335 2337
2335 2338
2335 2339
2336 2337
2336 2338
2336 2339
2336 2340
2337 2338
2337 2339
2337 2341
2337 7860
2338 2339
2338 2340
2338 2341
2338 2342
2339 2340
2339 2341
2339 2342
2339 2343
2339 6332
2339 9820
2339 9331
2339 7178
2340 2341
2340 2342
2340 2344
2341 2342
2341 2343
2341 2344
2341 2345
2342 2343
2342 2344
2342 2345
2342 2346
2343 2344
2343 2345
2343 2346
2343 2347
2343 8929
2344 2345
2344 2346
2344 2347
2344 2348
2345 2346
2345 2347
2345 2348
2345 5464
2346 2349
2346 2350
2346 7268
2347 2348
2347 2349
2347 2350
2347 2351
2347 6563
2348 2350
2348 2351
2348 2352
2348 4977
2349 2351
2349 2352
2349 2353
2350 2351
2350 2352
2350 2353
2350 2354
2351 2352
2351 2353
2351 2354
2351 2355
2351 9436
2352 2353
2352 2354
2352 2355
2352 2356
2353 2354
2353 2355
2353 2356
2353 2357
2353 5550
2354 2355
2354 2356
2354 2357
2354 2358
2354 6553
2355 2357
2355 2358
2355 2359
2355 3463
2356 2357
2356 2358
2356 2360
2356 3186
2357 2358
2357 2359
2357 2360
2357 2361
2358 2359
2358 2360
2358 2362
2358 9143
2359 2360
2359 2362
2359 2363
2359 3061
2360 2361
2360 2362
2360 2363
2360 5518
2361 2362
2361 2363
2361 2364
2361 2365
2362 2363
2362 2364
2362 2365
2362 2366
2363 2364
2363 2365
2363 2366
2363 2367
2364 2365
2364 2366
2364 2367
2364 3889
2364 3470
2365 2366
2365 2369
2365 7353
2365 9611
2366 2367
2366 2368
2366 2369
2366 2370
2367 2368
2367 2369
2367 2370
2367 2371
2367 9552
2368 2369
2368 2370
2368 2371
2368 2372
2369 2370
2369 2371
2369 2372
2369 2373
2369 5302
2370 2371
2370 2372
2370 2373
2370 2374
2371 2372
2371 2373
2371 2374
2371 2375
2372 2373
2372 2374
2372 2376
2372 7336
2372 7541
2372 7936
2373 2374
2373 2375
2373 2376
2373 2377
2373 3615
2374 2375
2374 2376
2374 2377
2374 2378
2375 2376
2375 2377
2375 2378
2375 2379
2376 2377
2376 2378
2376 2379
2376 2380
2376 3242
2377 2378
2377 2379
2377 2381
2378 2379
2378 2380
2378 2381
2378 2382
2378 5722
2378 7622
2379 2380
2379 2381
2379 2382
2379 2383
2379 4055
2380 2381
2380 2382
2380 2383
2380 2384
2381 2383
2381 2384
2381 2385
2381 7356
2381 8900
2382 2383
2382 2384
2382 2385
2382 2386
2383 2385
2383 2386
2383 2387
2383 6682
2384 2385
2384 2386
2384 2387
2384 2388
2385 2386
2385 2388
2385 2389
2385 8039
2386 2388
2386 2389
2386 2390
2386 6705
2387 2388
2387 2390
2387 2391
2387 8650
2388 2389
2388 2390
2388 2391
2388 2392
2388 9041
2389 2391
2389 2392
2389 2393
2389 5627
2390 2391
2390 2392
2390 2393
2390 2394
2391 2392
2391 2393
2391 2394
2391 2395
2392 2393
2392 2394
2392 2395
2392 2396
2392 4643
2393 2394
2393 2395
2393 2396
2393 2397
2394 2395
2394 2397
2394 2398
2394 5198
2395 2396
2395 2397
2395 2398
2395 2399
2396 2397
2396 2400
2396 5706
2396 5889
2396 5248
2396 4929
2397 2398
2397 2399
2397 2400
2397 2401
2398 2399
2398 2400
2398 2401
2398 6120
2399 2400
2399 2402
2399 2403
2399 5618
2400 2401
2400 2402
2400 2403
2400 2404
2401 2402
2401 2403
2401 2404
2401 2405
2401 4191
2402 2403
2402 2404
2402 2405
2402 2406
2403 2404
2403 2405
2403 2406
2403 2407
2403 9275
2404 2405
2404 2406
2404 2407
2404 2408
2405 2406
2405 2407
2405 2408
2405 2409
2405 6986
2406 2407
2406 2408
2406 2409
2406 2410
2406 7786
2407 2408
2407 2409
2407 2410
2407 2411
2408 2409
2408 2410
2408 2411
2408 2412
2409 2410
2409 2411
2409 2412
2409 2413
2410 2411
2410 2412
2410 2413
2410 2414
2411 2412
2411 2413
2411 2414
2411 4132
2412 2413
2412 2414
2412 2415
2412 2416
2413 2414
2413 2415
2413 2416
2413 2417
2414 2415
2414 2416
2414 2417
2414 2418
2414 6718
2415 2416
2415 2417
2415 2418
2415 3729
2416 2417
2416 2418
2416 2419
2416 2420
2417 2418
2417 2419
2417 2420
2417 2421
2418 2419
2418 2420
2418 2421
2418 2422
2419 2420
2419 2421
2419 2422
2419 2423
2419 3613
2420 2421
2420 2422
2420 2423
2420 7507
2421 2422
2421 2423
2421 2424
2421 2425
2421 7946
2422 2423
2422 2424
2422 2425
2422 5377
2423 2424
2423 2426
2423 2427
2423 5632
2424 2425
2424 2426
2424 2427
2424 2428
2425 2426
2425 2427
2425 2428
2425 2429
2426 2427
2426 2428
2426 2429
2426 5229
2426 8044
2427 2429
2427 2430
2427 2431
2427 4940
2428 2430
2428 2432
2428 6764
2429 2430
2429 2431
2429 2432
2429 2433
2430 2431
2430 2433
2430 2434
2431 2432
2431 2433
2431 2434
2431 2435
2432 2433
2432 2434
2432 2435
2432 2436
2432 9047
2433 2435
2433 2436
2433 2437
2433 6345
2434 2435
2434 2436
2434 2437
2434 2438
2434 6124
2435 2436
2435 2438
2435 2439
2435 9577
2435 2729
2435 9108
2436 2437
2436 2438
2436 2439
2436 2440
2437 2438
2437 2440
2437 2441
2437 6844
2438 2439
2438 2440
2438 2441
2438 2442
2439 2440
2439 2441
2439 2443
2439 9106
2440 2441
2440 2442
2440 2443
2440 2444
2441 2442
2441 2443
2441 2444
2441 2445
2442 2443
2442 2444
2442 2445
2442 2446
2443 2444
2443 2445
2443 2446
2443 2447
2444 2445
2444 2446
2444 2447
2444 2448
2444 3799
2445 2446
2445 2447
2445 2448
2445 2449
2446 2447
2446 2448
2446 2449
2446 2450
2447 2448
2447 2449
2447 2450
2447 2451
2447 4110
2448 2449
2448 2451
2448 2452
2449 2450
2449 2451
2449 2452
2449 2453
2450 2451
2450 2452
2450 2453
2450 2454
2451 2452
2451 2453
2451 2455
2452 2453
2452 2454
2452 2455
2452 2456
2453 2454
2453 2455
2453 2457
2453 2679
2454 2455
2454 2456
2454 2457
2454 2458
2455 2456
2455 2457
2455 2458
2455 2459
2456 2457
2456 2458
2456 2459
2456 2460
2456 6436
2457 2458
2457 2459
2457 2460
2457 4865
2458 2459
2458 2460
2458 2461
2458 2462
2458 8361
2459 2460
2459 2461
2459 2462
2459 2463
2460 2461
2460 2462
2460 2463
2460 2464
2460 9354
2461 2462
2461 2463
2461 2464
2461 2465
2462 2463
2462 2464
2462 2465
2462 2466
2463 2464
2463 2465
2463 2466
2463 2467
2463 5458
2464 2465
2464 2466
2464 2468
2464 6778
2465 2466
2465 2467
2465 2468
2465 2469
2466 2467
2466 2468
2466 2469
2466 2470
2466 6180
2467 2469
2467 2471
2467 4157
2467 3041
2467 9462
2468 2469
2468 2471
2468 2472
2468 8680
2469 2470
2469 2471
2469 2472
2469 2473
2469 4592
2470 2471
2470 2472
2470 2473
2470 2474
2471 2472
2471 2473
2471 2474
2471 2475
2472 2473
2472 2474
2472 2475
2472 2476
2473 2474
2473 2476
2473 2477
2473 4240
2474 2475
2474 2476
2474 2477
2474 2478
2475 2476
2475 2477
2475 2478
2475 2479
2476 2477
2476 2478
2476 2479
2476 2480
2477 2479
2477 2480
2477 2481
2477 4705
2478 2479
2478 2480
2478 2481
2478 2482
2479 2480
2479 2481
2479 2482
2479 2483
2480 2481
2480 2482
2480 2483
2480 2484
2480 3881
2481 2482
2481 2483
2481 2484
2481 3831
2482 2483
2482 2484
2482 2485
2482 2486
2483 2484
2483 2485
2483 2486
2483 3888
2484 2485
2484 2486
2484 2487
2484 2488
2485 2486
2485 2487
2485 2488
2485 2489
2486 2487
2486 2488
2486 2489
2486 2490
2486 7259
2487 2488
2487 2489
2487 2490
2487 2491
2488 2490
2488 2491
2488 2492
2488 4790
2488 8619
2489 2490
2489 2491
2489 2492
2489 2493
2490 2492
2490 2493
2491 2492
2491 2493
2491 2494
2491 2495
2492 2493
2492 2494
2492 2495
2492 2496
2492 6611
2493 2494
2493 2495
2493 2496
2493 2497
2494 2495
2494 2496
2494 2497
2494 2498
2495 2496
2495 2497
2495 2498
2495 2499
2496 2497
2496 2498
2496 2499
2496 2500
2497 2498
2497 2499
2497 2500
2497 2501
2498 2499
2498 2500
2498 2501
2498 2502
2499 2501
2499 2502
2499 2503
2499 4802
2500 2501
2500 2502
2500 2503
2500 2504
2501 2502
2501 2503
2501 2504
2501 8901
2502 2503
2502 2504
2502 2505
2502 2506
2503 2504
2503 2505
2503 2506
2503 2507
2503 8721
2504 2506
2504 2507
2504 4393
2505 2506
2505 2507
2505 2508
2505 2509
2506 2507
2506 2509
2506 2510
2506 6583
2506 2927
2507 2508
2507 2509
2507 2510
2507 7251
2508 2509
2508 2510
2508 2512
2508 5285
2509 2510
2509 2511
2509 2512
2509 2513
2510 2511
2510 2512
2510 2514
2510 5463
2511 2512
2511 2513
2511 2514
2511 2515
2512 2514
2512 2515
2512 2516
2513 2514
2513 2515
2513 2516
2513 2517
2514 2515
2514 2517
2514 2518
2514 4547
2515 2516
2515 2517
2515 2518
2515 2519
2516 2517
2516 2518
2516 2519
2516 2520
2517 2518
2517 2520
2517 2521
2518 2519
2518 2520
2518 2521
2518 2522
2519 2520
2519 2521
2519 2522
2519 2523
2519 5160
2520 2521
2520 2522
2520 2524
2520 6878
2521 2522
2521 2523
2521 2525
2521 2803
2522 2523
2522 2524
2522 2525
2522 5027
2522 6469
2523 2524
2523 2525
2523 2526
2523 6565
2523 7779
2524 2525
2524 2526
2524 2527
2524 9031
2525 2526
2525 2527
2525 2528
2525 2529
2526 2527
2526 2528
2526 2529
2526 2530
2527 2528
2527 2529
2527 2530
2527 2531
2527 3923
2528 2529
2528 2530
2528 2531
2528 2532
2529 2530
2529 2531
2529 2532
2529 2533
2530 2531
2530 2532
2530 2534
2531 2532
2531 2533
2531 2534
2531 2535
2531 5521
2532 2533
2532 2534
2532 2535
2532 2536
2532 7280
2533 2534
2533 2535
2533 2536
2533 2537
2534 2535
2534 2536
2534 2537
2534 2538
2535 2536
2535 2537
2535 2538
2535 2539
2536 2537
2536 2539
2536 2540
2536 8415
2537 2538
2537 2539
2537 2540
2537 2541
2538 2539
2538 2540
2538 2541
2538 2542
2538 4418
2539 2540
2539 2541
2539 2542
2539 2543
2539 9559
2540 2541
2540 2542
2540 2544
2541 2542
2541 2543
2541 2544
2541 2545
2542 2543
2542 2544
2542 2545
2542 2546
2542 4416
2542 3602
2543 2544
2543 2545
2543 2546
2543 2547
2544 2545
2544 2546
2544 2547
2544 2548
2545 2546
2545 2547
2545 2548
2545 2549
2546 2547
2546 2548
2546 2549
2546 2550
2547 2548
2547 2549
2547 2550
2547 2551
2548 2549
2548 2551
2548 2552
2549 2550
2549 2552
2549 2553
2549 5478
2550 2551
2550 2552
2550 2553
2550 2554
2551 2552
2551 2553
2551 2554
2551 2555
2551 9510
2552 2553
2552 2554
2552 2555
2552 2556
2553 2554
2553 2555
2553 2556
2553 2557
2553 7970
2554 2555
2554 2556
2554 2558
2554 9101
2554 8002
2555 2556
2555 2557
2555 2559
2555 7589
2555 4292
2556 2558
2556 2559
2556 2560
2556 6353
2557 2558
2557 2559
2557 2560
2557 6854
2558 2559
2558 2560
2558 2561
2558 2562
2559 2560
2559 2561
2559 2563
2560 2561
2560 2562
2560 2563
2560 2564
2560 8506
2561 2562
2561 2563
2561 2564
2561 2565
2562 2563
2562 2564
2562 2566
2562 6022
2563 2564
2563 2565
2563 2566
2563 2567
2564 2565
2564 2566
2564 2567
2564 9980
2565 2566
2565 2567
2565 2568
2565 2569
2566 2567
2566 2568
2566 2569
2566 2570
2567 2569
2567 2570
2567 2571
2567 3385
2567 3140
2568 2569
2568 2570
2568 2571
2568 2572
2569 2570
2569 2571
2569 2572
2569 2573
2570 2571
2570 2572
2570 2573
2570 2574
2571 2572
2571 2573
2571 2574
2571 5461
2572 2573
2572 2574
2572 2576
2573 2574
2573 2575
2573 2576
2573 2577
2574 2575
2574 2576
2574 2577
2574 2578
2574 6515
2575 2576
2575 2577
2575 2578
2575 2579
2575 4002
2576 2577
2576 2578
2576 2579
2576 2580
2577 2578
2577 2579
2577 2580
2577 2581
2578 2579
2578 2580
2578 2581
2578 2582
2579 2580
2579 2581
2579 2582
2579 2583
2580 2581
2580 2582
2580 2583
2580 2584
2581 2583
2581 2584
2581 2585
2581 2641
2581 2918
2582 2583
2582 2584
2582 2585
2582 2586
2582 5134
2583 2584
2583 2585
2583 2586
2583 2587
2584 2585
2584 2586
2584 2587
2584 2588
2584 7349
2585 2586
2585 2587
2585 2588
2585 2589
2586 2587
2586 2588
2586 2589
2586 2590
2587 2588
2587 2589
2587 2590
2587 2591
2588 2589
2588 2591
2588 2592
2589 2590
2589 2591
2589 2593
2589 9318
2590 2591
2590 2592
2590 2593
2590 2594
2590 3526
2591 2592
2591 2593
2591 2594
2591 2595
2591 3572
2591 4882
2592 2594
2592 2596
2592 3243
2592 8966
2593 2594
2593 2595
2593 2596
2593 4819
2593 5461
2594 2595
2594 2597
2594 3612
2595 2596
2595 2597
2595 2598
2595 9723
2596 2597
2596 2598
2596 2599
2596 2600
2597 2598
2597 2599
2597 2600
2597 2601
2598 2599
2598 2600
2598 2601
2598 2602
2598 2703
2599 2600
2599 2601
2599 2602
2599 2603
2600 2601
2600 2602
2600 2603
2600 2604
2600 6330
2601 2602
2601 2603
2601 2604
2601 2605
2602 2603
2602 2604
2602 2605
2602 9825
2603 2604
2603 2605
2603 2606
2603 2607
2603 4347
2604 2605
2604 2606
2604 2607
2604 2608
2605 2606
2605 2607
2605 2608
2605 2609
2606 2607
2606 2608
2606 2609
2606 2610
2606 3300
2606 4541
2607 2608
2607 2610
2607 2611
2608 2609
2608 2610
2608 2611
2608 2612
2609 2610
2609 2611
2609 2612
2609 2613
2610 2611
2610 2612
2610 2613
2610 2614
2611 2612
2611 2613
2611 2614
2611 2615
2611 4200
2612 2613
2612 2614
2612 2615
2612 2616
2613 2614
2613 2615
2613 2616
2613 2617
2613 3112
2614 2615
2614 2616
2614 2617
2614 2618
2614 4068
2615 2616
2615 2617
2615 2618
2615 2619
2616 2617
2616 2618
2616 2619
2616 2620
2617 2618
2617 2619
2617 2620
2617 2621
2617 6761
2618 2619
2618 2620
2618 2622
2618 3414
2619 2620
2619 2621
2619 2622
2619 2623
2620 2621
2620 2622
2620 2623
2620 2624
2621 2622
2621 2623
2621 2624
2621 2625
2622 2623
2622 2624
2622 2625
2622 2626
2623 2624
2623 2625
2623 2626
2623 2627
2624 2625
2624 2627
2624 2628
2624 8274
2624 5331
2625 2626
2625 2627
2625 2629
2625 6629
2626 2627
2626 2628
2626 2629
2626 2630
2627 2628
2627 2629
2627 2630
2627 2631
2628 2629
2628 2630
2628 2631
2628 2632
2628 5329
2629 2630
2629 2631
2629 4240
2630 2631
2630 2632
2630 2633
2630 6663
2631 2632
2631 2633
2631 2634
2631 2635
2632 2634
2632 2635
2632 2636
2632 5163
2633 2634
2633 2635
2633 2636
2633 2637
2634 2635
2634 2636
2634 2637
2634 2638
2635 2636
2635 2637
2635 2638
2635 2639
2636 2637
2636 2638
2636 2639
2636 6745
2637 2638
2637 2639
2637 2640
2637 2641
2638 2639
2638 2640
2638 2641
2638 2642
2639 2640
2639 2641
2639 2642
2639 2643
2639 2894
2640 2641
2640 2642
2640 2644
2640 8846
2640 9375
2640 5546
2641 2642
2641 2643
2641 2644
2641 2645
2642 2643
2642 2644
2642 2645
2642 2646
2642 9951
2643 2645
2643 2646
2643 2647
2644 2645
2644 2646
2644 2648
2644 8657
2645 2646
2645 2647
2645 2648
2645 4792
2646 2647
2646 2649
2646 2650
2646 4289
2647 2648
2647 2649
2647 2650
2647 2651
2648 2649
2648 2650
2648 2651
2648 2652
2649 2650
2649 2651
2649 2652
2649 2653
2650 2651
2650 2652
2650 2653
2650 2654
2650 8829
2651 2652
2651 2653
2651 2654
2651 2655
2652 2653
2652 2654
2652 2655
2652 2656
2653 2654
2653 2655
2653 2656
2653 2657
2654 2655
2654 2656
2654 2657
2654 2658
2655 2657
2655 2658
2655 2659
2655 6633
2656 2657
2656 2658
2656 2659
2656 2660
2657 2658
2657 2659
2657 2660
2657 2661
2658 2659
2658 2660
2658 2661
2658 2662
2659 2660
2659 2661
2659 2662
2659 2663
2660 2661
2660 2662
2660 2663
2660 2664
2660 8270
2660 3247
2661 2662
2661 2663
2661 2664
2661 2665
2662 2663
2662 2664
2662 2665
2662 2666
2662 5842
2663 2664
2663 2666
2663 2667
2663 5066
2664 2665
2664 2666
2664 2667
2664 2668
2665 2666
2665 2667
2665 2668
2665 2669
2665 5783
2666 2667
2666 2668
2666 2670
2666 6452
2666 3031
2667 2668
2667 2669
2667 2671
2667 8135
2668 2669
2668 2671
2668 9600
2668 7470
2668 6919
2669 2670
2669 2671
2669 2672
2669 2673
2670 2671
2670 2672
2670 2673
2670 2674
2671 2672
2671 2673
2671 2674
2671 2675
2672 2673
2672 2674
2672 2675
2672 2676
2673 2674
2673 2675
2673 2676
2673 2677
2673 5594
2674 2675
2674 2676
2674 2677
2674 2678
2675 2676
2675 2677
2675 2678
2675 2679
2675 8671
2676 2677
2676 2678
2676 2679
2676 2680
2677 2678
2677 2679
2677 2680
2677 5120
2678 2679
2678 2680
2678 2681
2678 2682
2679 2680
2679 2681
2679 2683
2680 2681
2680 2682
2680 2683
2680 2684
2681 2682
2681 2683
2681 2684
2681 2685
2682 2683
2682 2684
2682 2685
2682 2686
2683 2685
2683 2686
2683 2687
2683 4012
2684 2685
2684 2686
2684 2687
2684 2688
2685 2686
2685 2687
2685 2688
2685 2689
2686 2688
2686 2689
2686 2690
2686 3159
2687 2688
2687 2690
2687 2691
2687 4817
2688 2689
2688 2690
2688 2691
2688 2692
2689 2690
2689 2691
2689 2692
2689 7126
2689 7794
2690 2691
2690 2693
2690 2694
2690 4747
2691 2692
2691 2693
2691 2694
2691 2695
2691 7632
2692 2693
2692 2694
2692 2695
2692 2696
2692 3937
2693 2694
2693 2695
2693 2696
2693 2697
2693 5681
2694 2695
2694 2696
2694 2697
2694 2698
2694 4562
2695 2696
2695 2697
2695 2698
2695 2699
2696 2697
2696 2698
2696 2699
2696 2700
2697 2698
2697 2699
2697 2700
2697 2701
2698 2699
2698 2700
2698 2701
2698 2702
2699 2700
2699 2701
2699 2702
2699 2703
2700 2701
2700 2702
2700 2703
2700 2704
2700 6373
2701 2703
2701 2704
2701 2705
2701 6640
2702 2703
2702 2705
2702 2706
2702 9381
2703 2704
2703 2705
2703 2707
2704 2705
2704 2706
2704 2707
2704 7742
2704 7465
2705 2706
2705 2707
2705 2708
2705 2709
2706 2707
2706 2708
2706 2709
2706 2710
2707 2708
2707 2710
2707 5690
2707 7668
2708 2709
2708 2710
2708 2711
2708 2712
2709 2710
2709 2711
2709 2712
2709 2713
2710 2713
2710 2714
2710 4928
2711 2713
2711 2714
2711 2715
2712 2713
2712 2714
2712 2715
2712 2716
2712 7947
2713 2714
2713 2715
2713 2716
2713 2717
2714 2715
2714 2716
2714 2717
2714 2718
2715 2716
2715 2717
2715 2718
2715 2719
2716 2717
2716 2718
2716 2719
2716 2720
2717 2718
2717 2719
2717 2720
2717 2721
2718 2719
2718 2720
2718 2721
2718 2722
2719 2720
2719 2721
2719 2723
2719 6374
2720 2721
2720 2722
2720 2723
2720 2724
2720 6607
2721 2722
2721 2724
2721 2725
2721 3863
2722 2723
2722 2725
2722 2726
2722 4459
2723 2724
2723 2725
2723 2727
2723 8840
2724 2725
2724 2726
2724 2727
2724 2728
2725 2726
2725 2727
2725 2728
2725 2729
2725 2803
2725 8021
2726 2728
2726 2729
2726 2730
2726 4755
2727 2728
2727 2729
2727 2730
2727 2731
2728 2730
2728 2731
2728 2732
2728 3322
2728 9512
2729 2730
2729 2732
2729 2733
2730 2731
2730 2732
2730 2733
2730 2734
2731 2732
2731 2733
2731 2734
2731 2735
2731 8313
2732 2733
2732 2734
2732 2735
2732 5919
2733 2734
2733 2735
2733 2736
2733 2737
2734 2735
2734 2736
2734 2737
2734 2738
2735 2736
2735 2737
2735 2738
2735 2739
2736 2737
2736 2738
2736 2739
2736 2740
2737 2738
2737 2739
2737 2740
2737 2741
2738 2739
2738 2741
2738 2742
2738 8293
2739 2740
2739 2741
2739 2742
2739 2743
2740 2741
2740 2742
2740 2743
2740 2744
2741 2742
2741 2743
2741 2744
2741 2745
2741 4159
2742 2743
2742 2744
2742 2745
2742 2746
2742 2988
2743 2744
2743 2745
2743 2746
2743 7855
2744 2745
2744 2746
2744 2747
2744 2748
2745 2746
2745 2749
2745 2986
2746 2747
2746 2748
2746 2749
2746 2750
2747 2748
2747 2749
2747 2750
2747 2751
2747 7049
2748 2749
2748 2750
2748 2751
2748 9980
2749 2750
2749 2751
2749 2752
2749 2753
2750 2751
2750 2752
2750 2753
2750 2754
2751 2753
2751 2754
2751 2755
2751 5529
2752 2753
2752 2754
2752 2755
2752 2756
2753 2754
2753 2757
2753 4976
2753 4347
2753 7073
2754 2756
2754 2757
2754 2758
2754 8157
2754 2860
2754 6003
2755 2756
2755 2757
2755 2758
2755 6750
2756 2757
2756 2758
2756 2759
2756 2760
2757 2758
2757 2759
2757 5878
2758 2760
2758 2761
2758 2762
2758 8618
2759 2760
2759 2761
2759 2762
2759 2763
2759 6096
2760 2761
2760 2762
2760 2763
2760 2764
2761 2762
2761 2763
2761 2764
2761 2765
2761 7561
2762 2763
2762 2765
2762 2766
2762 9649
2763 2764
2763 2765
2763 2766
2763 4343
2764 2765
2764 2766
2764 2767
2764 2768
2765 2766
2765 2767
2765 2768
2765 2769
2766 2767
2766 2768
2766 2769
2766 2770
2766 4419
2767 2768
2767 2769
2767 2770
2767 2771
2768 2769
2768 2771
2768 2772
2768 4149
2769 2770
2769 2771
2769 2772
2769 2773
2770 2771
2770 2772
2770 2773
2770 2774
2771 2772
2771 2773
2771 2774
2771 2775
2772 2773
2772 2774
2772 2775
2772 2776
2772 6284
2773 2774
2773 2775
2773 2776
2773 2777
2774 2775
2774 2777
2774 2778
2774 6773
2775 2776
2775 2777
2775 2778
2775 2779
2776 2777
2776 2779
2776 2780
2776 3502
2776 3556
2777 2778
2777 2779
2777 2780
2777 2781
2778 2779
2778 2780
2778 2781
2778 2782
2779 2780
2779 2781
2779 2782
2779 2783
2779 3635
2780 2781
2780 2782
2780 2783
2780 2784
2780 5529
2781 2782
2781 2783
2781 2784
2781 2785
2782 2784
2782 2785
2782 2786
2782 6720
2782 3805
2783 2785
2783 2786
2783 2787
2783 9375
2784 2785
2784 2786
2784 2787
2784 2788
2785 2786
2785 2787
2785 2788
2785 2789
2786 2787
2786 2788
2786 2789
2786 2790
2787 2788
2787 2789
2787 2790
2787 2791
2787 5041
2788 2789
2788 2790
2788 2791
2788 2792
2789 2790
2789 2791
2789 2792
2789 2793
2789 7654
2790 2792
2790 2793
2790 2794
2790 9980
2791 2792
2791 2793
2791 2794
2791 2795
2792 2793
2792 2794
2792 2795
2792 2796
2793 2794
2793 2795
2793 2796
2793 2797
2794 2795
2794 2796
2794 2797
2794 2798
2795 2796
2795 2797
2795 2798
2795 2799
2796 2797
2796 2798
2796 2799
2796 2800
2797 2798
2797 2799
2797 2801
2798 2799
2798 2800
2798 2802
2798 8556
2798 9080
2799 2800
2799 2801
2799 2802
2799 3100
2800 2802
2800 2803
2800 2804
2800 7359
2801 2802
2801 2804
2801 2805
2801 8028
2801 5673
2802 2803
2802 2804
2802 2805
2802 2806
2802 5260
2803 2804
2803 2805
2803 2807
2804 2805
2804 2806
2804 2807
2804 2808
2805 2806
2805 2807
2805 2808
2805 2809
2806 2807
2806 2808
2806 2809
2806 2810
2806 6079
2807 2808
2807 2809
2807 2810
2807 2811
2808 2809
2808 2810
2808 7391
2808 4819
2808 4256
2808 8540
2809 2810
2809 2811
2809 3762
2809 9237
2809 5605
2810 2811
2810 2812
2810 2813
2810 2814
2811 2812
2811 2813
2811 2814
2811 2815
2812 2813
2812 2814
2812 2815
2812 2816
2812 9021
2813 2815
2813 2816
2813 2817
2814 2815
2814 2816
2814 2817
2814 2818
2815 2816
2815 2817
2815 2818
2815 6934
2815 9004
2816 2817
2816 2819
2816 2820
2816 8527
2817 2818
2817 2820
2817 2821
2817 6510
2818 2819
2818 2820
2818 2821
2818 2822
2819 2820
2819 2821
2819 2822
2819 2823
2820 2821
2820 2822
2820 2823
2820 2824
2820 4181
2820 6753
2821 2822
2821 2823
2821 2824
2821 2825
2821 4096
2822 2823
2822 2824
2822 2825
2822 2826
2822 6254
2823 2825
2823 2826
2823 2827
2823 2966
2824 2825
2824 2826
2824 2828
2825 2826
2825 2827
2825 2828
2825 2829
2826 2828
2826 2829
2826 2830
2827 2828
2827 2830
2827 2831
2828 2829
2828 2830
2828 2831
2828 2832
2829 2830
2829 2831
2829 2832
2829 2833
2830 2831
2830 2832
2830 5546
2830 8022
2830 5112
2831 2833
2831 2834
2831 2835
2831 7210
2832 2833
2832 2834
2832 2835
2832 2836
2833 2834
2833 2835
2833 2836
2833 2837
2833 5551
2834 2835
2834 2836
2834 2837
2834 2838
2835 2836
2835 2837
2835 2838
2835 2839
2836 2837
2836 2838
2836 2839
2836 2840
2837 2838
2837 2839
2837 2840
2837 2841
2838 2839
2838 2840
2838 2841
2838 2842
2839 2840
2839 2841
2839 2842
2839 2843
2840 2841
2840 2842
2840 2843
2840 2844
2840 3560
2841 2842
2841 2843
2841 2844
2841 2845
2842 2843
2842 2844
2842 2845
2842 2846
2843 2844
2843 2845
2843 2846
2843 2847
2843 8678
2844 2845
2844 2846
2844 2847
2844 2848
2845 2846
2845 2847
2845 2848
2845 2849
2845 6217
2846 2847
2846 2848
2846 2849
2846 2850
2847 2848
2847 2849
2847 2850
2847 2851
2847 5337
2848 2851
2848 2852
2848 9201
2849 2850
2849 2851
2849 2852
2849 8705
2850 2851
2850 2852
2850 2853
2850 2854
2850 6668
2851 2852
2851 2854
2851 2855
2851 8103
2851 9923
2852 2853
2852 2854
2852 2855
2852 2856
2852 7034
2853 2854
2853 2855
2853 2856
2853 2857
2854 2855
2854 2856
2854 2857
2854 2858
2855 2857
2855 2858
2855 2859
2855 7368
2856 2857
2856 2858
2856 2859
2856 2860
2857 2858
2857 2859
2857 2860
2857 2861
2858 2859
2858 2861
2858 2862
2858 7571
2859 2861
2859 2862
2859 2863
2859 3933
2860 2862
2860 2864
2860 7284
2861 2862
2861 2863
2861 2864
2861 2865
2862 2863
2862 2865
2862 2866
2862 6425
2862 9406
2863 2864
2863 2865
2863 2866
2863 2867
2864 2865
2864 2867
2864 4187
2864 3992
2864 5937
2865 2866
2865 2867
2865 2868
2865 3945
2866 2867
2866 2869
2866 2870
2866 3074
2866 9413
2867 2868
2867 2869
2867 2870
2867 2871
2868 2869
2868 2870
2868 2871
2868 2872
2869 2870
2869 2871
2869 2872
2869 2873
2870 2871
2870 2872
2870 2873
2870 2874
2870 9787
2871 2872
2871 2873
2871 2874
2871 7831
2872 2873
2872 2874
2872 2875
2872 2876
2873 2874
2873 2875
2873 2876
2873 9356
2874 2875
2874 2876
2874 2877
2875 2876
2875 2877
2875 2878
2875 8597
2876 2877
2876 2878
2876 2879
2876 2880
2877 2878
2877 2879
2877 2881
2877 5415
2878 2879
2878 2880
2878 2881
2878 2882
2879 2880
2879 2881
2879 2882
2879 2883
2880 2881
2880 2882
2880 2883
2880 2884
2881 2882
2881 2883
2881 2884
2881 2885
2882 2883
2882 2884
2882 2885
2882 2886
2882 9712
2883 2884
2883 2885
2883 2886
2883 2887
2884 2885
2884 2886
2884 2887
2884 2888
2885 2886
2885 2887
2885 2889
2886 2887
2886 2888
2886 2889
2887 2888
2887 2889
2887 2890
2887 2891
2888 2889
2888 2890
2888 2891
2888 2892
2889 2890
2889 2891
2889 2892
2889 2893
2890 2892
2890 2893
2890 2894
2891 2892
2891 2893
2891 2894
2891 2895
2892 2893
2892 2894
2892 2895
2892 2896
2893 2894
2893 2895
2893 2896
2893 2897
2893 4011
2894 2895
2894 2896
2894 6378
2895 2896
2895 2898
2895 2899
2896 2897
2896 2898
2896 2899
2896 2900
2897 2898
2897 2900
2897 2901
2897 4513
2897 9987
2898 2899
2898 2900
2898 2901
2898 6982
2899 2900
2899 2901
2899 2902
2899 2903
2900 2901
2900 2902
2900 2903
2900 2904
2901 2902
2901 2903
2901 2904
2901 4385
2901 5990
2901 3625
2902 2903
2902 2904
2902 2906
2902 3829
2903 2904
2903 2905
2903 2907
2903 9966
2904 2905
2904 2906
2904 2908
2905 2907
2905 2908
2905 2909
2905 5491
2905 3578
2906 2907
2906 2908
2906 2910
2906 5947
2907 2908
2907 2909
2907 2910
2907 2911
2907 3423
2908 2909
2908 2910
2908 2912
2908 3603
2908 9127
2909 2910
2909 2911
2909 2913
2909 3966
2910 2911
2910 2912
2910 2913
2910 8119
2911 2912
2911 2913
2911 2914
2911 2915
2912 2913
2912 2914
2912 2915
2912 2916
2913 2914
2913 2915
2913 2916
2913 2917
2914 2915
2914 2916
2914 2917
2914 7169
2915 2916
2915 2917
2915 2918
2915 2919
2915 6985
2916 2917
2916 2919
2916 2920
2916 2933
2917 2918
2917 2919
2917 2920
2917 2921
2918 2919
2918 2920
2918 2921
2919 2920
2919 2921
2919 2922
2919 2923
2919 3529
2920 2921
2920 2922
2920 2923
2920 2924
2921 2922
2921 2923
2921 2924
2921 2925
2922 2923
2922 2924
2922 2925
2922 2926
2923 2924
2923 2926
2923 2927
2923 9762
2923 9941
2924 2926
2924 2927
2924 2928
2924 4570
2925 2926
2925 2927
2925 2928
2925 2929
2926 2927
2926 2928
2926 2929
2926 2930
2926 8719
2927 2928
2927 2930
2927 2931
2928 2929
2928 2930
2928 2931
2928 2932
2929 2931
2929 2932
2929 5655
2929 7352
2930 2932
2930 2934
2930 8139
2930 4061
2930 4901
2931 2932
2931 2933
2931 2934
2931 2935
2931 5357
2932 2933
2932 2934
2932 2935
2932 2936
2932 7970
2933 2934
2933 2935
2933 2936
2933 2937
2934 2935
2934 2936
2934 2937
2934 2938
2935 2936
2935 2937
2935 2938
2935 2939
2936 2937
2936 2938
2936 2939
2936 2940
2937 2939
2937 2940
2937 2941
2937 6528
2938 2939
2938 2940
2938 2941
2938 2942
2939 2941
2939 2942
2939 2943
2939 7909
2940 2941
2940 2942
2940 2943
2940 5838
2940 6745
2941 2942
2941 2943
2941 2944
2941 2945
2942 2943
2942 2944
2942 2945
2942 2946
2942 8247
2943 2944
2943 2945
2943 2946
2943 2947
2943 9632
2944 2945
2944 2946
2944 2947
2944 2948
2945 2946
2945 2947
2945 2948
2945 2949
2946 2947
2946 2948
2946 2950
2946 4922
2947 2948
2947 2950
2947 2951
2947 3813
2948 2949
2948 2950
2948 2951
2948 2952
2949 2950
2949 2951
2949 2952
2949 2953
2949 3519
2950 2951
2950 2952
2950 2953
2950 2954
2951 2952
2951 2953
2951 2954
2951 4357
2952 2953
2952 2954
2952 2955
2952 2956
2952 5052
2953 2954
2953 2955
2953 2957
2953 5538
2954 2955
2954 2956
2954 2958
2954 9154
2954 8351
2955 2956
2955 2957
2955 2959
2956 2957
2956 2959
2956 2960
2957 2958
2957 2959
2957 2961
2957 8847
2957 5792
2957 9369
2958 2961
2958 2962
2958 4931
2958 5910
2959 2960
2959 2962
2959 2963
2960 2961
2960 2962
2960 2963
2960 2964
2961 2962
2961 2964
2961 2965
2961 8613
2962 2963
2962 2964
2962 2965
2962 2966
2962 9005
2963 2964
2963 2965
2963 2966
2963 2967
2964 2965
2964 2966
2964 2967
2964 2968
2964 8869
2965 2966
2965 2967
2965 2968
2965 2969
2965 4000
2966 2967
2966 2968
2966 2969
2966 2970
2967 2968
2967 2969
2967 2971
2967 8970
2968 2969
2968 2970
2968 2971
2968 2972
2969 2970
2969 2971
2969 2972
2969 2973
2969 6130
2970 2971
2970 2972
2970 2973
2970 2974
2971 2972
2971 2973
2971 2974
2971 2975
2972 2973
2972 2974
2972 2975
2972 2976
2973 2974
2973 2975
2973 2976
2973 2977
2974 2975
2974 2976
2974 2977
2974 2978
2975 2976
2975 2977
2975 2978
2975 9684
2975 6477
2976 2977
2976 2978
2976 2979
2976 2980
2977 2978
2977 2979
2977 2980
2977 2981
2978 2979
2978 2980
2978 2981
2978 2982
2978 4046
2979 2980
2979 2982
2979 2983
2979 7694
2980 2981
2980 2982
2980 2983
2980 2984
2981 2982
2981 2983
2981 2985
2982 2983
2982 2985
2982 2986
2982 8124
2983 2984
2983 2986
2983 2987
2983 9892
2984 2985
2984 2987
2984 5235
2984 6304
2985 2986
2985 2987
2985 2988
2985 2989
2986 2987
2986 2988
2986 2989
2986 6134
2987 2988
2987 2989
2987 2990
2987 2991
2988 2990
2988 2991
2988 2992
2989 2990
2989 2991
2989 2992
2989 2993
2990 2991
2990 2992
2990 2993
2990 2994
2991 2992
2991 2993
2991 2994
2991 2995
2991 6756
2992 2993
2992 2994
2992 2995
2992 2996
2993 2994
2993 2997
2993 9164
2993 3525
2993 9126
2994 2996
2994 2997
2994 2998
2994 8343
2994 6970
2994 3873
2994 9053
2995 2996
2995 2997
2995 2998
2995 2999
2996 2997
2996 2998
2996 2999
2996 3000
2996 3967
2997 2999
2997 3000
2997 3001
2998 2999
2998 3000
2998 3001
2998 3002
2998 9487
2999 3001
2999 3002
2999 3003
3000 3001
3000 3002
3000 3003
3000 3004
3000 6661
3001 3002
3001 3003
3001 3004
3001 3005
3002 3003
3002 3004
3002 3005
3002 3006
3003 3004
3003 3005
3003 3006
3003 3007
3004 3005
3004 3006
3004 3007
3004 3008
3005 3006
3005 3007
3005 3008
3005 3009
3006 3007
3006 3008
3006 3009
3006 7227
3007 3008
3007 3009
3007 3010
3007 3011
3007 6119
3008 3009
3008 3010
3008 3011
3008 3012
3009 3010
3009 3011
3009 3012
3009 3013
3010 3011
3010 3012
3010 3013
3010 3014
3011 3012
3011 3013
3011 3014
3011 3015
3012 3013
3012 3014
3012 3016
3012 6608
3012 8074
3013 3014
3013 3015
3013 9126
3013 3927
3013 9467
3014 3015
3014 3016
3014 3017
3014 9809
3015 3016
3015 3018
3015 3019
3015 9429
3016 3017
3016 3019
3016 3020
3017 3018
3017 3019
3017 3020
3017 3021
3018 3019
3018 3020
3018 3021
3018 3022
3019 3020
3019 3021
3019 3022
3019 3023
3020 3021
3020 3022
3020 3024
3021 3022
3021 3023
3021 3025
3021 7243
3022 3023
3022 3024
3022 3025
3022 3026
3023 3024
3023 3025
3023 3026
3023 3027
3024 3025
3024 3026
3024 3027
3024 3028
3025 3027
3025 3028
3025 9739
3025 9966
3025 3207
3026 3027
3026 3028
3026 3030
3027 3028
3027 3029
3027 3030
3027 3031
3028 3029
3028 3030
3028 3031
3028 3032
3029 3030
3029 3031
3029 3032
3029 3033
3030 3031
3030 3032
3030 3033
3030 3034
3031 3032
3031 3033
3031 3034
3032 3033
3032 3034
3032 3035
3032 3036
3033 3034
3033 3035
3033 3036
3033 3037
3034 3035
3034 3036
3034 3037
3034 3038
3035 3036
3035 3037
3035 3038
3035 3039
3036 3037
3036 3038
3036 3040
3036 9584
3037 3038
3037 3039
3037 3041
3037 4451
3038 3039
3038 3040
3038 3041
3038 4679
3039 3040
3039 3041
3039 3042
3040 3041
3040 3042
3040 3043
3040 3044
3041 3042
3041 3043
3041 3044
3041 3045
3042 3043
3042 3044
3042 3045
3042 3046
3043 3044
3043 3045
3043 3046
3043 3047
3044 3045
3044 3046
3044 3047
3044 3048
3045 3047
3045 3048
3045 3049
3045 5776
3046 3047
3046 3048
3046 3049
3046 3050
3047 3048
3047 3049
3047 3051
3047 5878
3048 3049
3048 3050
3048 3051
3048 3052
3049 3050
3049 3051
3049 3052
3049 3053
3049 7803
3050 3051
3050 3052
3050 3053
3050 3054
3051 3052
3051 3053
3051 3054
3052 3053
3052 3054
3052 3055
3052 3056
3052 7341
3052 7592
3053 3054
3053 3055
3053 3056
3053 3057
3053 4346
3053 7738
3054 3055
3054 3056
3054 3057
3054 3058
3054 8523
3055 3056
3055 3057
3055 3058
3055 3059
3055 3877
3056 3057
3056 3058
3056 3060
3056 6747
3057 3058
3057 3059
3057 3060
3057 3061
3057 9083
3058 3059
3058 3060
3058 3062
3058 4688
3059 3060
3059 3061
3059 3062
3059 3063
3059 8760
3060 3061
3060 3062
3060 3063
3060 9700
3061 3062
3061 3063
3061 3064
3061 3065
3062 3063
3062 3064
3062 3065
3062 6029
3063 3064
3063 3065
3063 3066
3063 3067
3063 6725
3064 3065
3064 3066
3064 3067
3064 3068
3065 3066
3065 3067
3065 3068
3065 6620
3066 3067
3066 3068
3066 3069
3066 3070
3067 3068
3067 3069
3067 3070
3067 3071
3068 3069
3068 3070
3068 3071
3068 3072
3069 3071
3069 3072
3069 3073
3070 3072
3070 3073
3070 3074
3070 9457
3071 3073
3071 3074
3071 3075
3071 6945
3072 3073
3072 3074
3072 3075
3072 3076
3073 3074
3073 3075
3073 3076
3073 3077
3074 3076
3074 3077
3074 3078
3075 3076
3075 3077
3075 3078
3075 3079
3075 6700
3075 8511
3075 6410
3076 3077
3076 3078
3076 3079
3076 3080
3077 3078
3077 3079
3077 3080
3077 3081
3078 3079
3078 3080
3078 3081
3078 3082
3079 3080
3079 3081
3079 3082
3079 9283
3079 6626
3079 3625
3080 3081
3080 3082
3080 3083
3080 3084
3081 3082
3081 3083
3081 3084
3081 3085
3082 3083
3082 3084
3082 3085
3082 3086
3083 3084
3083 3085
3083 3086
3083 3087
3084 3086
3084 3088
3084 7595
3084 7660
3085 3086
3085 3087
3085 3088
3085 3089
3086 3087
3086 3088
3086 3089
3086 3090
3086 5221
3087 3088
3087 3089
3087 3090
3087 3091
3088 3089
3088 3090
3088 3092
3088 8984
3089 3090
3089 3091
3089 3092
3089 3093
3090 3091
3090 3092
3090 3093
3090 3094
3091 3092
3091 3093
3091 3094
3091 3095
3091 8088
3092 3093
3092 3094
3092 3095
3092 3096
3093 3094
3093 3095
3093 3096
3093 3097
3093 9881
3094 3095
3094 3096
3094 3097
3094 3098
3095 3096
3095 3097
3095 3098
3095 3099
3096 3097
3096 3098
3096 3099
3096 3100
3097 3098
3097 3099
3097 3100
3097 5512
3098 3099
3098 3100
3098 3101
3098 3102
3099 3101
3099 3102
3099 3103
3099 8883
3099 4266
3100 3102
3100 3104
3100 3617
3100 9369
3101 3102
3101 3103
3101 3104
3101 3105
3102 3103
3102 3104
3102 3105
3102 3106
3103 3104
3103 3106
3103 3107
3103 8600
3104 3105
3104 3106
3104 3107
3104 3108
3105 3106
3105 3107
3105 3108
3105 3109
3106 3107
3106 3108
3106 3109
3106 3110
3107 3108
3107 3109
3107 3110
3107 3111
3107 8400
3108 3109
3108 3110
3108 3111
3108 3112
3109 3110
3109 3111
3109 3113
3109 7758
3109 3470
3110 3111
3110 3112
3110 3113
3110 3114
3111 3112
3111 3113
3111 3114
3111 3115
3112 3113
3112 3115
3112 3116
3113 3114
3113 3115
3113 3116
3113 3117
3114 3115
3114 3116
3114 3117
3114 3118
3115 3116
3115 3117
3115 3118
3115 3119
3115 6482
3116 3117
3116 3118
3116 3119
3116 3120
3117 3118
3117 3119
3117 3120
3117 3121
3118 3119
3118 3120
3118 3121
3118 3122
3118 7454
3119 3120
3119 3121
3119 3122
3119 3123
3120 3121
3120 3122
3120 3123
3120 3124
3121 3122
3121 3123
3121 3124
3121 3125
3122 3123
3122 3124
3122 3126
3122 4134
3123 3125
3123 3126
3123 3127
3124 3125
3124 3127
3124 3128
3124 5070
3124 3692
3125 3126
3125 3127
3125 3128
3125 3129
3126 3127
3126 3128
3126 3129
3126 3130
3127 3128
3127 3129
3127 3131
3128 3129
3128 3130
3128 3131
3128 3132
3129 3130
3129 3131
3129 3132
3129 3133
3129 4461
3130 3131
3130 3133
3130 3134
3130 9683
3131 3133
3131 3134
3131 3135
3131 7089
3132 3133
3132 3134
3132 3135
3132 3136
3133 3134
3133 3135
3133 3137
3133 5277
3134 3135
3134 3136
3134 3137
3134 3138
3135 3136
3135 3137
3135 3138
3135 3139
3136 3138
3136 3139
3136 3140
3137 3138
3137 3139
3137 3140
3137 3141
3138 3139
3138 3140
3138 3141
3138 3142
3139 3140
3139 3141
3139 3142
3139 3143
3140 3142
3140 3144
3140 3722
3141 3142
3141 3143
3141 3144
3141 3145
3142 3143
3142 3145
3142 3146
3142 8350
3143 3144
3143 3145
3143 3146
3143 3147
3144 3145
3144 3146
3144 3147
3144 7801
3144 8631
3144 7056
3145 3146
3145 3148
3145 3149
3146 3147
3146 3148
3146 3149
3146 3150
3147 3148
3147 3150
3147 3151
3147 5284
3148 3149
3148 3151
3148 3152
3148 9583
3149 3150
3149 3151
3149 3152
3149 4778
3150 3151
3150 3152
3150 3153
3150 3154
3150 8054
3151 3152
3151 3153
3151 3154
3151 4890
3152 3154
3152 3155
3152 3156
3152 9496
3152 6988
3153 3154
3153 3155
3153 3156
3153 3157
3154 3155
3154 3156
3154 3157
3154 5379
3155 3156
3155 3157
3155 3158
3155 4786
3156 3157
3156 3158
3156 3159
3156 3160
3157 3158
3157 3159
3157 3160
3157 3161
3157 3579
3158 3159
3158 3160
3158 3161
3158 3162
3159 3160
3159 3161
3159 3162
3159 3163
3159 9671
3160 3162
3160 3164
3160 9079
3160 7606
3161 3162
3161 3163
3161 3164
3161 3165
3162 3163
3162 3164
3162 3166
3162 6635
3162 3533
3163 3164
3163 3165
3163 3166
3163 3167
3164 3165
3164 3166
3164 3167
3164 3168
3165 3166
3165 3167
3165 3168
3165 3169
3166 3167
3166 3168
3166 3169
3166 3170
3167 3168
3167 3169
3167 3170
3167 3171
3168 3169
3168 3170
3168 3171
3168 3172
3169 3170
3169 3171
3169 3172
3169 3173
3170 3171
3170 3172
3170 3173
3170 3174
3171 3172
3171 3173
3171 3174
3171 3175
3171 9134
3172 3173
3172 3175
3172 3176
3172 8728
3172 3241
3173 3175
3173 3176
3173 3177
3173 5544
3174 3175
3174 3176
3174 3177
3174 3178
3175 3176
3175 3177
3175 3178
3175 3179
3176 3177
3176 3178
3176 3179
3176 3180
3177 3178
3177 3179
3177 3180
3177 3181
3178 3179
3178 3180
3178 3181
3178 3182
3179 3180
3179 3181
3179 3183
3179 7880
3180 3181
3180 3183
3180 3184
3180 9662
3181 3183
3181 3184
3181 3185
3181 9233
3181 4334
3182 3183
3182 3184
3182 3185
3182 3186
3183 3184
3183 3185
3183 3186
3183 3187
3184 3186
3184 3187
3184 3188
3185 3186
3185 3187
3185 3188
3185 3189
3186 3187
3186 3481
3186 3485
3187 3188
3187 3189
3187 3190
3187 3191
3188 3189
3188 3190
3188 3192
3188 4983
3189 3190
3189 3191
3189 3192
3189 3193
3189 7412
3190 3191
3190 3192
3190 3193
3191 3192
3191 3193
3191 3194
3191 3195
3192 3193
3192 3194
3192 3196
3193 3194
3193 3195
3193 3196
3193 3197
3194 3195
3194 3197
3194 3198
3194 5866
3195 3196
3195 3197
3195 3198
3195 3199
3195 6674
3196 3197
3196 3198
3196 3200
3196 8030
3197 3198
3197 3199
3197 3200
3197 3201
3198 3199
3198 3200
3198 3201
3198 3202
3199 3200
3199 3201
3199 3203
3199 3910
3200 3201
3200 3202
3200 3204
3200 9011
3201 3202
3201 3204
3201 3205
3201 8860
3201 4139
3202 3203
3202 3204
3202 3205
3202 3206
3202 5621
3203 3205
3203 3206
3203 3207
3203 3369
3204 3205
3204 3206
3204 3207
3204 3208
3205 3206
3205 3207
3205 5082
3206 3207
3206 3208
3206 3209
3206 3210
3206 9922
3207 3209
3207 3210
3207 3211
3207 7071
3208 3209
3208 3210
3208 3212
3208 9150
3209 3210
3209 3211
3209 3212
3209 3213
3210 3212
3210 3213
3210 3214
3210 4307
3210 9244
3211 3213
3211 3214
3211 3215
3212 3214
3212 7676
3212 7439
3212 4814
3213 3215
3213 3216
3213 3217
3213 5867
3214 3215
3214 3216
3214 3217
3214 3218
3214 3916
3215 3216
3215 3217
3215 3218
3215 3219
3216 3217
3216 3218
3216 3219
3216 3220
3216 9465
3217 3218
3217 3219
3217 3220
3217 3221
3218 3219
3218 3220
3218 3221
3218 9095
3219 3220
3219 3221
3219 3222
3220 3221
3220 3222
3220 3223
3220 3224
3221 3222
3221 3223
3221 3224
3221 3225
3222 3223
3222 3224
3222 3225
3222 3226
3223 3224
3223 3225
3223 3226
3223 3227
3224 3225
3224 3226
3224 3227
3224 3228
3225 3226
3225 3227
3225 3228
3225 3229
3225 3854
3226 3227
3226 3229
3226 3230
3227 3228
3227 3229
3227 3230
3227 3231
3228 3229
3228 3230
3228 3231
3228 3232
3229 3230
3229 3231
3229 3232
3229 3233
3230 3232
3230 3233
3230 3234
3230 8155
3231 3232
3231 3233
3231 3234
3231 3235
3232 3233
3232 3234
3232 3235
3232 6209
3233 3234
3233 3235
3233 3236
3233 3237
3234 3235
3234 3236
3234 3237
3234 3238
3235 3236
3235 3237
3235 7597
3235 3714
3236 3237
3236 3238
3236 3239
3236 3240
3237 3238
3237 3239
3237 3240
3237 3241
3237 9375
3238 3239
3238 3240
3238 3241
3238 5736
3239 3240
3239 3241
3239 3242
3239 5824
3239 8281
3240 3241
3240 3242
3240 3243
3240 3244
3241 3242
3241 3244
3241 3245
3241 6054
3242 3243
3242 3244
3242 7274
3242 3775
3243 3244
3243 3245
3243 3246
3243 3247
3244 3245
3244 3246
3244 3247
3245 3246
3245 3247
3245 3248
3245 3249
3245 9427
3246 3247
3246 3249
3246 3250
3246 9782
3247 3248
3247 6700
3248 3249
3248 3250
3248 3251
3248 3252
3249 3250
3249 3251
3249 3252
3249 3253
3249 4617
3250 3251
3250 3252
3250 3253
3250 3254
3251 3252
3251 3253
3251 3254
3251 3255
3252 3253
3252 3254
3252 3255
3252 3256
3252 7812
3253 3254
3253 3255
3253 3256
3253 3257
3253 6478
3254 3255
3254 3256
3254 3258
3254 9332
3255 3256
3255 3258
3255 3259
3255 8993
3256 3257
3256 3258
3256 3259
3256 3260
3257 3258
3257 3259
3257 3260
3257 3261
3258 3259
3258 3260
3258 3261
3258 3262
3258 7586
3259 3261
3259 3263
3259 6126
3260 3261
3260 3262
3260 3263
3260 3264
3261 3262
3261 3263
3261 3264
3261 3265
3262 3263
3262 3264
3262 3265
3262 3266
3262 6196
3263 3264
3263 3265
3263 3266
3263 3267
3264 3265
3264 3266
3264 3267
3264 3268
3265 3266
3265 3267
3265 3268
3265 3269
3266 3267
3266 3268
3266 3270
3266 7204
3267 3268
3267 3269
3267 3271
3267 3980
3268 3269
3268 3270
3268 3271
3268 3272
3268 6364
3269 3270
3269 3271
3269 3272
3269 3273
3269 5947
3270 3271
3270 3272
3270 3273
3270 3274
3271 3272
3271 3273
3271 3274
3271 3275
3271 7101
3272 3273
3272 3274
3272 3275
3272 3276
3273 3274
3273 3275
3273 3276
3273 3277
3274 3275
3274 3276
3274 3277
3274 3278
3275 3276
3275 3278
3275 3279
3276 3277
3276 3279
3276 3280
3276 4442
3277 3278
3277 3279
3277 3280
3277 3281
3278 3279
3278 3280
3278 3281
3278 3282
3279 3280
3279 3281
3279 3282
3279 3283
3279 7979
3280 3281
3280 3282
3280 3283
3281 3282
3281 3283
3281 3284
3281 3285
3281 6683
3282 3284
3282 3285
3282 3286
3282 9837
3283 3284
3283 3285
3283 3286
3283 3287
3284 3285
3284 3286
3284 3287
3284 3288
3285 3286
3285 3287
3285 3288
3285 3289
3286 3287
3286 3288
3286 3289
3286 9738
3287 3288
3287 3289
3287 3290
3287 3291
3287 8458
3288 3289
3288 3291
3288 3292
3288 3508
3288 5514
3289 3290
3289 3291
3289 3292
3289 3293
3290 3292
3290 3293
3290 5542
3290 5289
3291 3292
3291 3293
3291 3294
3291 3295
3291 4568
3292 3293
3292 3294
3292 3296
3292 6985
3292 7992
3293 3294
3293 3295
3293 3296
3293 3297
3294 3295
3294 3296
3294 3297
3294 3298
3295 3296
3295 3297
3295 3298
3295 3299
3295 5604
3296 3297
3296 3298
3296 3300
3296 9999
3297 3298
3297 3299
3297 3300
3297 3301
3297 4250
3298 3299
3298 3300
3298 3302
3298 8725
3299 3300
3299 3301
3299 3302
3299 3303
3300 3301
3300 3304
3300 7951
3301 3302
3301 3305
3301 9691
3301 5815
3302 3305
3302 3306
3302 7437
3302 5456
3303 3304
3303 3305
3303 3306
3303 3307
3304 3305
3304 3306
3304 3307
3304 3308
3305 3306
3305 3307
3305 3308
3305 3309
3306 3307
3306 3308
3306 3309
3306 3310
3307 3308
3307 3309
3307 3310
3307 3311
3308 3309
3308 3310
3308 3311
3309 3310
3309 3311
3309 3312
3309 3313
3310 3311
3310 3312
3310 3313
3310 3314
3311 3312
3311 3313
3311 3314
3311 3315
3312 3313
3312 3314
3312 3315
3312 3316
3313 3314
3313 3316
3313 3317
3313 6170
3313 9166
3314 3315
3314 3316
3314 3317
3314 3318
3315 3316
3315 3317
3315 3318
3315 3319
3316 3317
3316 3318
3316 3319
3316 3320
3317 3318
3317 3319
3317 3320
3317 3321
3318 3319
3318 3320
3318 3321
3318 3322
3319 3320
3319 3321
3319 3322
3319 3323
3319 9599
3320 3321
3320 3322
3320 3323
3320 3324
3320 6875
3321 3322
3321 3324
3321 3325
3321 9178
3322 3323
3322 3324
3322 3325
3322 6949
3323 3324
3323 3325
3323 3326
3323 4997
3324 3325
3324 3326
3324 3327
3324 3328
3324 7901
3325 3326
3325 3327
3325 3328
3325 3329
3326 3327
3326 3328
3326 3329
3326 3330
3327 3328
3327 3329
3327 3330
3327 8002
3328 3329
3328 3331
3328 3332
3328 8218
3329 3330
3329 3331
3329 3332
3329 3333
3330 3331
3330 3332
3330 3333
3330 3334
3331 3332
3331 3333
3331 3334
3331 3335
3331 7737
3332 3333
3332 3335
3332 3336
3333 3334
3333 3335
3333 3336
3333 3337
3334 3335
3334 3337
3334 3338
3334 9434
3335 3337
3335 3339
3335 5611
3335 7144
3335 8151
3336 3337
3336 3338
3336 3339
3336 3340
3337 3338
3337 3339
3337 3340
3337 3341
3337 8220
3338 3339
3338 3340
3338 5265
3339 3341
3339 3342
3339 3343
3339 7758
3340 3341
3340 3342
3340 3343
3340 3344
3341 3342
3341 3343
3341 3345
3341 9995
3341 5773
3342 3343
3342 3344
3342 3345
3342 3346
3343 3344
3343 3345
3343 3346
3343 3347
3344 3345
3344 3346
3344 3347
3344 3348
3345 3346
3345 3348
3345 3349
3345 6511
3346 3347
3346 3348
3346 3349
3346 3350
3347 3349
3347 3350
3347 8358
3347 4508
3348 3349
3348 3350
3348 3351
3348 3410
3349 3350
3349 3351
3349 3352
3349 3353
3350 3351
3350 3353
3350 3354
3351 3352
3351 3353
3351 3354
3351 3355
3352 3353
3352 3356
3352 5945
3352 3788
3353 3354
3353 3355
3353 3356
3353 3357
3353 5750
3354 3355
3354 3356
3354 3357
3354 3358
3355 3356
3355 3357
3355 3358
3355 3359
3356 3357
3356 3359
3356 3360
3356 6704
3357 3358
3357 3360
3357 3361
3357 9163
3358 3359
3358 3360
3358 3362
3358 6022
3359 3360
3359 3361
3359 3362
3359 7332
3360 3361
3360 3362
3360 3363
3360 7533
3360 8488
3360 5301
3361 3362
3361 3363
3361 3364
3361 3365
3362 3363
3362 3364
3362 3365
3362 3366
3362 7680
3363 3364
3363 3365
3363 3366
3363 3367
3364 3366
3364 3367
3364 3368
3365 3366
3365 3369
3365 6573
3366 3367
3366 3368
3366 3369
3366 3370
3367 3368
3367 3369
3367 3370
3367 3371
3368 3369
3368 3370
3368 3371
3368 3372
3369 3370
3369 3371
3369 3372
3369 3373
3370 3371
3370 3372
3370 3373
3371 3372
3371 3373
3371 3375
3371 7813
3372 3373
3372 3374
3372 3375
3372 3376
3373 3374
3373 3376
3373 3377
3374 3375
3374 3376
3374 3377
3374 3378
3374 3839
3375 3376
3375 3377
3375 3378
3375 3379
3376 3377
3376 3378
3376 3379
3376 3380
3376 6063
3376 9811
3377 3378
3377 3379
3377 3380
3377 3381
3378 3379
3378 3381
3378 3382
3379 3380
3379 3381
3379 3382
3379 3383
3380 3381
3380 3382
3380 3383
3380 3384
3381 3382
3381 3384
3381 3385
3381 5484
3382 3383
3382 3384
3382 3385
3382 3386
3382 8195
3383 3384
3383 3385
3383 3387
3384 3385
3384 3386
3384 3387
3385 3386
3385 3387
3385 3388
3385 3389
3386 3387
3386 3388
3386 3389
3386 3390
3386 9791
3387 3388
3387 3390
3387 3391
3388 3389
3388 3390
3388 3391
3388 3392
3389 3390
3389 3391
3389 3392
3389 3393
3390 3391
3390 3392
3390 3393
3390 3394
3390 3708
3390 8306
3391 3392
3391 3393
3391 3394
3391 3395
3392 3393
3392 3394
3392 3395
3392 3396
3393 3394
3393 3395
3393 3396
3393 3397
3393 9995
3394 3395
3394 3396
3394 3398
3394 9919
3395 3396
3395 3397
3395 3398
3395 3399
3396 3397
3396 3398
3396 3399
3396 3400
3396 3846
3397 3398
3397 3399
3397 3400
3397 3401
3398 3399
3398 3401
3398 3402
3398 8413
3399 3400
3399 3401
3399 3402
3399 3403
3400 3401
3400 3402
3400 3403
3400 3404
3401 3403
3401 3404
3401 3405
3401 9608
3402 3403
3402 3404
3402 3405
3402 3406
3403 3404
3403 3405
3403 3406
3403 3407
3404 3405
3404 3406
3404 3407
3404 3408
3405 3406
3405 3407
3405 3408
3405 3409
3406 3407
3406 3408
3406 3409
3406 3410
3407 3408
3407 3409
3407 3410
3407 3411
3407 9107
3408 3409
3408 3410
3408 3412
3408 8233
3409 3410
3409 3411
3409 3412
3409 3413
3410 3411
3410 3412
3410 3413
3410 3414
3410 7764
3411 3412
3411 3413
3411 3415
3412 3413
3412 3414
3412 3415
3412 3416
3413 3414
3413 3415
3413 3416
3413 9423
3414 3415
3414 3416
3414 3418
3414 6456
3415 3416
3415 3417
3415 3418
3415 3419
3416 3418
3416 3419
3416 3420
3416 7093
3417 3418
3417 3419
3417 3421
3418 3419
3418 3420
3418 3421
3418 3422
3419 3420
3419 3421
3419 3422
3419 3423
3419 8403
3420 3421
3420 3422
3420 3423
3420 7547
3420 5693
3421 3422
3421 3423
3421 3424
3421 3425
3422 3423
3422 3424
3422 3426
3422 7525
3423 3424
3423 3425
3423 3427
3424 3426
3424 3427
3424 3428
3425 3426
3425 3427
3425 3428
3425 3429
3426 3427
3426 3429
3426 3430
3426 4785
3426 6409
3427 3428
3427 3429
3427 3430
3427 5535
3428 3429
3428 3430
3428 3431
3428 3432
3429 3430
3429 3431
3429 3432
3429 3433
3430 3431
3430 3432
3430 3434
3430 8402
3431 3432
3431 3433
3431 3434
3431 3435
3432 3433
3432 3434
3432 3436
3432 9708
3433 3434
3433 3435
3433 3436
3433 3438
3434 3435
3434 3436
3434 3437
3434 3438
3435 3436
3435 3438
3435 6007
3435 4648
3436 3437
3436 3438
3436 3439
3436 3440
3436 5262
3437 3438
3437 3439
3437 3440
3437 3441
3438 3439
3438 3440
3438 3442
3438 5735
3439 3440
3439 3442
3439 3443
3439 9701
3440 3441
3440 3442
3440 3443
3440 3444
3440 4204
3441 3442
3441 3443
3441 3444
3441 3445
3442 3443
3442 3444
3442 3446
3442 9026
3443 3444
3443 3445
3443 3446
3443 3447
3443 5060
3444 3445
3444 3446
3444 3447
3444 3448
3445 3446
3445 3447
3445 3448
3445 3449
3446 3447
3446 3448
3446 3449
3446 3450
3447 3448
3447 3449
3447 3451
3447 6811
3448 3449
3448 3450
3448 3451
3448 3452
3448 5394
3449 3450
3449 3451
3449 3452
3449 3453
3450 3451
3450 3452
3450 3453
3450 3454
3451 3452
3451 3453
3451 3454
3451 3455
3452 3453
3452 3454
3452 3455
3452 3456
3453 3454
3453 3455
3453 3456
3453 3457
3454 3455
3454 3456
3454 3457
3454 3458
3454 9696
3455 3456
3455 3457
3455 3458
3455 3459
3456 3457
3456 3458
3456 3459
3456 3460
3457 3458
3457 3459
3457 3460
3457 3461
3457 6915
3457 3920
3458 3459
3458 3460
3458 3461
3458 3462
3459 3460
3459 3461
3459 3462
3459 3923
3460 3462
3460 3463
3460 3464
3460 9047
3461 3462
3461 3464
3461 3465
3461 9290
3461 4764
3461 6716
3462 3463
3462 3464
3462 3465
3462 3466
3462 8821
3463 3464
3463 3465
3463 3466
3463 3467
3464 3465
3464 3466
3464 3467
3464 3468
3464 7521
3465 3466
3465 3467
3465 3468
3465 3469
3466 3467
3466 7142
3466 9064
3467 3469
3467 3471
3467 8137
3467 3873
3468 3469
3468 3470
3468 3471
3468 3472
3469 3470
3469 3471
3469 3472
3469 3473
3469 5339
3470 3471
3470 3472
3470 3473
3470 9447
3471 3472
3471 3473
3471 3474
3471 3475
3472 3473
3472 3474
3472 3476
3472 8460
3473 3474
3473 3475
3473 3476
3474 3476
3474 3477
3474 3478
3475 3476
3475 3477
3475 3478
3475 3479
3476 3477
3476 3478
3476 3479
3476 3480
3477 3478
3477 3479
3477 3480
3477 3481
3478 3479
3478 3481
3478 3482
3478 7833
3478 5143
3478 9728
3479 3480
3479 3481
3479 3482
3479 3483
3479 5427
3480 3481
3480 3482
3480 3483
3480 3484
3481 3482
3481 3483
3481 3484
3481 3485
3481 7339
3482 3483
3482 3484
3482 3485
3482 3486
3483 3484
3483 3485
3483 3486
3483 3487
3484 3486
3484 3487
3484 3488
3484 9336
3485 3486
3485 3487
3485 3489
3486 3488
3486 3489
3486 3490
3486 4727
3487 3489
3487 3491
3487 9314
3488 3489
3488 3490
3488 3491
3488 3492
3489 3490
3489 3491
3489 3492
3489 3493
3490 3491
3490 3492
3490 3493
3490 3494
3491 3492
3491 3493
3491 3495
3491 5773
3492 3493
3492 3494
3492 3495
3492 3496
3493 3494
3493 3496
3493 3497
3493 6889
3493 5688
3493 8448
3494 3495
3494 3496
3494 3497
3494 3498
3495 3496
3495 3497
3495 3499
3495 7885
3496 3497
3496 3498
3496 3499
3496 3500
3497 3498
3497 3499
3497 3943
3497 8523
3498 3499
3498 3500
3498 3501
3498 3502
3499 3500
3499 3501
3499 3502
3499 3503
3500 3501
3500 3502
3500 3503
3500 3504
3501 3502
3501 3503
3501 3504
3501 3505
3502 3503
3502 3504
3502 3505
3502 3506
3503 3505
3503 3506
3503 3507
3503 4983
3504 3505
3504 3506
3504 3507
3504 7893
3505 3506
3505 3507
3505 3508
3505 5404
3506 3507
3506 3508
3506 3509
3506 3510
3507 3508
3507 3509
3507 3510
3507 3511
3508 3509
3508 3510
3508 3511
3508 3512
3509 3510
3509 3511
3509 3512
3509 3513
3510 3511
3510 3512
3510 3513
3510 3514
3511 3512
3511 3513
3511 3514
3511 3515
3512 3513
3512 3514
3512 3515
3512 3516
3513 3514
3513 3515
3513 3517
3513 3682
3514 3515
3514 3516
3514 3517
3514 3518
3515 3516
3515 3517
3515 3518
3515 3519
3516 3517
3516 3518
3516 3519
3516 3520
3516 3855
3517 3518
3517 3519
3517 3520
3517 3521
3518 3519
3518 3520
3518 3521
3518 3522
3519 3520
3519 3521
3519 3522
3520 3521
3520 3522
3520 3523
3520 3524
3521 3522
3521 3523
3521 3524
3521 3525
3522 3523
3522 3524
3522 3525
3522 3526
3523 3524
3523 3525
3523 3526
3523 3527
3524 3525
3524 3526
3524 3528
3524 4532
3525 3526
3525 3527
3525 3528
3526 3527
3526 3529
3526 3530
3527 3528
3527 3529
3527 3530
3527 3531
3528 3529
3528 3530
3528 3531
3528 3532
3528 9848
3529 3530
3529 3531
3529 3532
3530 3531
3530 3532
3530 3533
3530 3534
3531 3532
3531 3533
3531 3534
3532 3533
3532 3534
3532 3535
3532 3536
3533 3534
3533 3535
3533 3536
3534 3535
3534 3536
3534 3537
3534 3538
3535 3536
3535 3538
3535 3539
3535 8583
3536 3537
3536 3538
3536 3539
3536 3540
3537 3538
3537 3539
3537 3540
3537 3541
3538 3539
3538 3540
3538 3541
3539 3540
3539 3541
3539 3542
3539 3543
3539 9018
3539 6812
3540 3541
3540 3542
3540 3543
3540 3544
3540 6912
3541 3542
3541 3543
3541 3544
3541 3545
3541 9833
3542 3544
3542 3545
3542 3546
3543 3544
3543 3545
3543 3546
3543 3547
3544 3545
3544 3546
3544 3547
3544 3548
3544 7076
3545 3546
3545 3547
3545 3549
3545 7832
3546 3547
3546 3548
3546 3550
3546 9329
3547 3548
3547 3549
3547 3550
3547 3551
3548 3549
3548 3550
3548 3551
3548 3552
3549 3550
3549 3551
3549 3552
3549 3553
3550 3551
3550 3552
3550 3553
3551 3552
3551 3553
3551 3555
3551 3892
3552 3553
3552 3554
3552 3555
3552 3556
3552 6131
3553 3554
3553 3555
3553 3556
3553 3557
3554 3555
3554 3556
3554 3557
3554 3558
3555 3556
3555 3558
3555 3559
3555 8041
3556 3560
3556 4527
3557 3558
3557 3559
3557 3560
3557 3561
3558 3559
3558 3561
3558 3562
3558 4638
3558 5003
3559 3560
3559 3561
3559 3562
3559 3563
3560 3561
3560 3562
3560 3564
3561 3562
3561 3563
3561 3999
3561 5855
3562 3563
3562 3564
3562 3565
3562 3566
3562 3795
3562 4399
3563 3564
3563 3565
3563 3567
3563 6499
3563 9186
3564 3565
3564 3566
3564 3567
3564 4718
3565 3566
3565 3567
3565 3568
3565 3569
3566 3567
3566 3568
3566 3569
3566 3570
3567 3568
3567 3569
3567 3570
3567 3571
3567 4935
3568 3569
3568 3572
3568 8765
3569 3570
3569 3571
3569 3572
3569 3573
3570 3571
3570 3572
3570 3573
3570 3574
3570 9362
3571 3572
3571 3573
3571 3574
3571 6573
3571 8348
3571 7150
3572 3573
3572 3575
3572 3576
3573 3574
3573 3575
3573 3576
3573 3577
3573 3984
3574 3575
3574 3576
3574 3577
3574 3578
3575 3576
3575 3577
3575 3578
3575 3579
3576 3577
3576 3578
3576 3579
3576 3580
3577 3578
3577 3579
3577 3580
3577 3581
3578 3579
3578 3581
3578 3582
3578 9709
3579 3580
3579 3581
3579 3583
3580 3581
3580 3582
3580 3584
3580 8458
3581 3582
3581 3583
3581 3584
3581 3585
3582 3583
3582 3584
3582 3585
3582 3586
3583 3585
3583 3586
3583 3587
3583 4526
3584 3585
3584 3586
3584 3587
3584 3588
3584 4151
3585 3586
3585 3587
3585 3588
3585 3589
3586 3587
3586 3588
3586 3589
3586 3590
3587 3588
3587 3589
3587 3590
3587 3591
3588 3589
3588 3590
3588 3591
3588 3592
3589 3590
3589 3591
3589 3592
3589 3593
3590 3591
3590 3592
3590 3593
3590 3594
3591 3592
3591 3593
3591 3594
3591 3595
3592 3593
3592 3594
3592 3595
3592 3596
3593 3594
3593 3595
3593 3596
3593 3597
3594 3596
3594 3597
3594 3598
3594 4467
3595 3596
3595 3597
3595 3599
3595 9942
3596 3597
3596 3598
3596 3599
3596 3600
3596 7697
3597 3598
3597 3600
3597 3601
3597 8393
3598 3599
3598 3600
3598 3601
3598 3602
3598 8149
3599 3600
3599 3601
3599 3602
3599 3603
3599 7797
3600 3601
3600 3602
3600 3603
3600 3604
3601 3602
3601 3603
3601 3604
3601 3605
3602 3605
3602 3606
3602 4202
3603 3604
3603 3605
3603 3606
3603 3607
3604 3605
3604 3606
3604 3607
3604 3608
3605 3606
3605 3607
3605 3608
3605 3609
3606 3607
3606 3608
3606 3609
3606 3610
3607 3608
3607 3609
3607 3611
3608 3609
3608 3610
3608 3611
3608 3612
3609 3610
3609 3611
3609 3612
3609 3613
3610 3611
3610 3612
3610 3613
3610 3614
3611 3612
3611 3613
3611 3614
3611 3615
3612 3613
3612 3614
3612 3615
3612 3616
3613 3615
3613 3616
3613 3617
3613 7692
3614 3615
3614 3616
3614 3617
3614 3618
3614 6251
3615 3616
3615 3617
3615 3618
3615 4787
3616 3617
3616 3618
3616 3619
3616 3620
3617 3618
3617 3619
3617 3620
3617 3621
3618 3619
3618 3620
3618 3621
3618 3622
3619 3620
3619 3621
3619 3622
3619 3623
3620 3621
3620 3622
3620 3624
3620 5317
3621 3622
3621 3623
3621 3624
3621 3625
3621 7143
3622 3623
3622 3624
3622 3625
3623 3624
3623 3625
3623 3626
3623 3627
3624 3625
3624 3626
3624 3627
3624 3628
3624 6175
3624 8899
3625 3626
3625 3628
3625 3629
3625 5285
3626 3627
3626 3628
3626 3629
3626 3630
3627 3628
3627 3629
3627 3630
3627 3631
3628 3630
3628 3632
3628 5571
3628 7414
3629 3630
3629 3632
3629 3633
3630 3631
3630 3632
3630 3633
3630 3634
3631 3632
3631 3633
3631 3634
3631 3635
3632 3633
3632 3634
3632 3635
3632 3636
3633 3634
3633 3636
3633 3637
3633 8619
3634 3635
3634 3637
3634 3638
3635 3638
3635 3639
3635 7869
3635 8966
3636 3639
3636 5905
3637 3638
3637 3639
3637 3640
3637 3641
3637 4818
3638 3639
3638 3640
3638 3641
3638 3642
3639 3640
3639 3641
3639 3642
3639 3643
3640 3641
3640 3642
3640 3643
3640 3644
3641 3642
3641 3643
3641 3645
3642 3643
3642 3644
3642 3645
3642 3646
3643 3644
3643 3646
3643 3647
3643 7505
3643 6322
3643 9475
3644 3645
3644 3646
3644 3647
3645 3646
3645 3648
3645 3649
3645 6647
3646 3647
3646 3648
3646 3649
3646 3650
3647 3648
3647 3649
3647 3650
3647 3651
3648 3649
3648 3650
3648 3651
3648 3652
3648 9967
3649 3650
3649 3651
3649 3652
3649 3653
3650 3651
3650 3652
3650 3653
3650 3654
3651 3652
3651 3653
3651 3654
3651 3655
3652 3653
3652 3654
3652 3655
3652 3656
3652 6236
3653 3654
3653 3655
3653 3656
3653 3657
3653 4817
3654 3655
3654 3656
3654 3657
3654 3658
3655 3656
3655 3657
3655 3658
3655 3659
3656 3657
3656 3658
3656 3659
3656 3660
3657 3659
3657 3660
3657 3661
3657 9350
3658 3659
3658 3660
3658 3661
3658 3662
3659 3660
3659 3661
3659 3663
3659 8808
3660 3661
3660 3662
3660 3663
3660 3664
3661 3662
3661 3663
3661 3664
3661 3665
3662 3663
3662 3664
3662 3665
3662 3666
3662 8086
3663 3664
3663 3665
3663 3666
3663 3667
3663 4948
3664 3665
3664 3666
3664 3667
3664 3668
3665 3666
3665 3668
3665 3669
3665 4302
3666 3667
3666 3668
3666 3669
3666 3670
3667 3668
3667 3669
3667 3670
3667 3671
3667 3856
3668 3669
3668 3670
3668 3671
3668 3672
3669 3670
3669 3671
3669 3672
3669 3673
3670 3671
3670 3672
3670 3673
3670 3674
3671 3672
3671 3673
3671 3674
3671 3675
3672 3674
3672 3676
3672 4888
3672 5599
3673 3674
3673 3675
3673 3676
3673 3677
3674 3675
3674 3676
3674 3677
3674 3678
3675 3676
3675 3677
3675 3678
3675 3679
3676 3677
3676 3679
3676 3680
3676 3849
3677 3678
3677 3679
3677 3680
3677 3681
3678 3679
3678 3680
3678 3681
3678 3682
3678 9151
3679 3680
3679 3681
3679 3682
3679 3683
3679 9660
3680 3681
3680 3682
3680 3683
3680 3684
3681 3682
3681 3684
3681 3685
3681 6270
3682 3683
3682 3684
3682 3685
3682 3686
3683 3685
3683 3686
3683 5006
3684 3685
3684 3686
3684 3687
3684 3688
3685 3686
3685 3687
3685 3688
3685 3689
3686 3687
3686 3688
3686 3689
3686 3690
3687 3688
3687 3689
3687 3690
3687 3691
3688 3689
3688 3690
3688 3691
3688 3692
3688 4944
3689 3690
3689 3691
3689 3692
3689 3693
3690 3691
3690 3692
3690 3693
3690 3694
3691 3692
3691 3693
3691 3694
3691 3695
3691 4092
3692 3693
3692 3695
3692 3696
3692 6213
3693 3694
3693 3695
3693 3696
3693 3697
3694 3695
3694 3696
3694 3697
3694 3698
3695 3696
3695 3697
3695 3698
3695 3699
3696 3698
3696 3699
3696 3700
3697 3698
3697 3699
3697 3700
3697 3701
3698 3699
3698 3700
3698 3701
3698 3702
3699 3700
3699 3701
3699 3702
3699 3703
3700 3701
3700 3702
3700 3703
3700 3704
3701 3702
3701 3703
3701 3704
3701 3705
3701 5441
3702 3703
3702 3705
3702 3706
3702 3822
3703 3704
3703 3705
3703 3706
3703 3707
3704 3705
3704 3706
3704 3707
3704 3708
3705 3706
3705 3707
3705 3708
3705 3709
3706 3707
3706 3709
3706 3710
3706 9478
3707 3708
3707 3709
3707 3711
3707 5110
3707 9296
3707 5638
3708 3710
3708 3711
3708 3712
3709 3710
3709 3711
3709 3712
3709 3713
3710 3711
3710 3712
3710 3713
3710 3714
3711 3712
3711 3713
3711 3714
3711 3715
3711 7680
3712 3713
3712 3714
3712 3715
3712 3716
3713 3714
3713 3715
3713 3716
3713 3717
3713 8963
3714 3716
3714 3717
3715 3716
3715 3717
3715 3718
3715 3719
3716 3717
3716 3718
3716 3719
3716 3720
3717 3718
3717 3719
3717 3720
3717 3721
3718 3719
3718 3720
3718 3721
3718 6878
3719 3720
3719 3721
3719 3722
3719 3723
3720 3721
3720 3722
3720 3723
3720 3724
3721 3722
3721 3723
3721 3724
3721 3725
3721 9666
3722 3723
3722 3724
3722 3725
3722 3726
3723 3724
3723 3725
3723 3726
3723 3727
3724 3725
3724 3726
3724 3727
3724 3728
3724 9562
3725 3726
3725 3727
3725 3728
3725 3729
3726 3727
3726 3728
3726 3729
3726 3730
3727 3728
3727 3729
3727 3730
3727 3731
3728 3729
3728 3730
3728 3731
3728 3732
3729 3730
3729 3731
3729 3732
3729 3733
3730 3731
3730 3732
3730 3733
3730 3734
3731 3732
3731 3733
3731 3734
3731 3735
3732 3733
3732 3734
3732 3735
3732 3736
3732 6545
3733 3734
3733 3735
3733 3736
3733 3737
3734 3735
3734 3736
3734 3737
3734 3738
3735 3736
3735 3737
3735 3738
3735 3739
3735 9315
3736 3737
3736 3739
3736 6101
3736 6607
3737 3738
3737 3739
3737 3740
3737 8451
3738 3739
3738 3740
3738 3741
3738 3742
3738 3976
3739 3740
3739 3741
3739 3742
3739 3743
3740 3741
3740 3742
3740 3743
3740 3744
3741 3742
3741 3743
3741 3744
3741 3745
3742 3743
3742 3745
3742 9057
3742 9384
3743 3744
3743 3745
3743 3746
3743 3747
3744 3745
3744 3746
3744 3748
3744 4744
3745 3747
3745 3748
3745 3749
3745 4448
3745 8187
3746 3747
3746 3748
3746 3749
3746 3750
3746 8966
3747 3749
3747 3750
3747 3751
3747 8148
3748 3749
3748 3750
3748 3751
3749 3750
3749 3751
3749 3752
3749 3753
3750 3751
3750 3752
3750 3753
3750 3754
3751 3752
3751 3753
3751 3754
3751 3755
3752 3753
3752 3754
3752 3755
3752 9685
3753 3754
3753 3755
3753 3756
3753 3757
3754 3755
3754 3756
3754 3757
3754 3758
3754 7652
3755 3756
3755 3757
3755 3758
3755 3759
3755 5193
3756 3757
3756 3758
3756 3759
3756 3760
3757 3758
3757 3759
3757 3760
3757 3761
3758 3759
3758 3760
3758 3761
3758 3762
3759 3760
3759 3761
3759 3762
3759 3763
3759 5845
3760 3761
3760 3762
3760 3763
3760 5835
3761 3762
3761 3763
3761 3764
3761 3765
3762 3763
3762 3765
3762 3766
3763 3764
3763 3765
3763 3766
3763 3767
3764 3765
3764 3766
3764 3767
3764 3768
3765 3767
3765 3768
3765 3769
3765 9402
3766 3767
3766 3768
3766 3769
3766 3770
3767 3768
3767 3769
3767 3770
3767 3771
3768 3769
3768 3770
3768 3771
3768 3772
3769 3770
3769 3771
3769 3773
3769 7606
3769 7011
3770 3771
3770 3772
3770 3773
3770 3774
3771 3772
3771 3773
3771 8369
3771 6103
3772 3773
3772 3774
3772 3775
3772 3776
3772 4773
3773 3774
3773 3775
3773 3776
3773 3777
3773 7761
3773 7471
3774 3775
3774 3777
3774 3778
3774 9035
3775 3776
3775 3777
3775 3778
3775 3779
3776 3777
3776 3778
3776 3779
3776 3780
3776 7584
3777 3778
3777 3779
3777 3780
3777 3781
3778 3779
3778 3780
3778 3781
3778 3782
3779 3780
3779 3781
3779 3782
3779 3783
3780 3781
3780 3782
3780 3784
3780 8551
3781 3782
3781 3783
3781 3784
3781 8858
3782 3783
3782 3784
3782 3785
3782 3786
3783 3784
3783 3785
3783 3786
3783 3787
3783 9194
3784 3785
3784 3786
3784 3787
3784 3788
3784 4006
3785 3786
3785 3787
3785 3788
3785 3789
3786 3788
3786 3789
3786 3790
3786 4755
3787 3790
3787 3791
3787 7705
3787 5001
3788 3789
3788 3790
3788 3791
3788 3792
3788 6889
3789 3790
3789 3791
3789 3792
3789 7897
3790 3791
3790 3792
3790 3793
3790 3794
3791 3792
3791 3793
3791 3794
3791 4530
3792 3793
3792 3794
3792 3795
3792 3796
3793 3794
3793 3795
3793 3796
3793 3797
3794 3795
3794 3796
3794 3797
3794 3798
3794 5955
3795 3796
3795 3798
3795 3799
3796 3797
3796 3798
3796 3799
3796 3800
3797 3798
3797 3799
3797 3800
3797 3801
3798 3799
3798 3800
3798 3801
3798 3802
3799 3800
3799 3802
3799 3803
3800 3801
3800 3803
3800 3804
3801 3802
3801 3803
3801 3804
3801 3805
3802 3803
3802 6731
3802 7103
3803 3804
3803 3807
3803 5166
3804 3805
3804 3806
3804 3807
3804 3808
3804 8290
3805 3807
3805 3808
3805 3809
3806 3807
3806 3808
3806 3809
3806 3810
3807 3808
3807 3809
3807 3810
3807 7614
3808 3809
3808 3810
3808 3811
3808 3812
3809 3811
3809 3812
3809 3813
3809 5825
3810 3811
3810 3812
3810 3813
3810 3814
3810 4436
3810 7762
3811 3812
3811 3813
3811 3814
3811 3815
3812 3813
3812 3814
3812 3815
3812 3816
3813 3814
3813 3815
3813 3816
3813 3817
3814 3815
3814 3816
3814 3817
3814 3818
3815 3816
3815 3817
3815 3818
3815 3819
3816 3817
3816 3819
3816 3820
3816 7945
3817 3818
3817 3819
3817 3820
3817 3821
3818 3819
3818 3821
3818 3822
3819 3820
3819 3822
3819 3823
3819 8389
3820 3821
3820 3822
3820 3823
3820 3824
3821 3822
3821 3823
3821 3824
3821 7357
3822 3823
3822 3824
3822 3825
3823 3824
3823 3825
3823 3826
3823 3827
3824 3825
3824 3826
3824 3827
3824 3828
3824 6197
3825 3826
3825 3829
3825 4577
3826 3827
3826 3828
3826 3829
3826 3830
3826 4270
3827 3828
3827 3829
3827 3830
3827 3831
3828 3829
3828 3830
3828 3831
3828 6767
3829 3832
3829 3833
3829 7858
3830 3831
3830 3832
3830 3833
3830 3834
3831 3832
3831 3833
3831 3834
3831 3835
3832 3833
3832 3834
3832 3835
3832 3836
3833 3834
3833 3835
3833 3836
3833 3837
3834 3835
3834 3836
3834 3837
3834 9227
3834 9959
3835 3836
3835 3837
3835 3838
3835 3839
3835 7480
3836 3837
3836 3838
3836 3839
3836 9960
3836 6663
3837 3838
3837 3839
3837 3840
3837 8292
3838 3839
3838 3840
3838 3841
3838 3842
3839 3840
3839 3842
3839 5195
3839 6512
3840 3841
3840 3843
3840 3844
3840 7813
3841 3842
3841 3843
3841 3844
3841 3845
3842 3844
3842 3845
3842 3846
3842 8667
3843 3844
3843 3845
3843 3847
3843 5668
3844 3845
3844 3846
3844 3847
3844 3848
3844 7836
3845 3846
3845 3847
3845 3848
3845 3849
3846 3848
3846 3849
3846 3850
3847 3848
3847 3849
3847 3850
3847 3851
3848 3849
3848 3851
3848 3852
3848 4326
3849 3850
3849 3851
3849 3852
3849 3853
3850 3851
3850 3852
3850 3853
3850 3854
3851 3852
3851 3853
3851 3855
3851 8670
3852 3853
3852 3854
3852 3855
3852 3856
3853 3855
3853 3856
3853 3857
3853 4881
3853 5878
3853 5491
3854 3855
3854 3857
3854 3858
3854 8445
3855 3857
3855 3858
3855 6144
3856 3858
3856 3859
3856 3860
3857 3858
3857 3859
3857 3860
3857 3861
3858 3859
3858 3860
3858 3861
3858 7522
3858 4801
3859 3860
3859 3861
3859 3862
3859 3863
3860 3861
3860 3862
3860 3863
3860 3864
3861 3862
3861 3863
3861 3864
3861 3865
3862 3863
3862 3864
3862 3865
3862 3866
3862 5711
3863 3864
3863 3866
3863 3867
3863 7706
3864 3865
3864 3866
3864 3867
3864 3868
3865 3866
3865 3867
3865 3868
3865 3869
3866 3867
3866 3868
3866 3869
3866 3870
3866 5090
3867 3868
3867 3870
3867 3871
3867 4656
3868 3869
3868 3870
3868 3871
3868 3872
3869 3870
3869 3871
3869 3872
3869 3873
3870 3871
3870 3872
3870 3873
3870 3874
3871 3872
3871 3873
3871 3874
3871 3875
3872 3873
3872 3874
3872 3875
3872 3876
3872 6147
3873 3874
3873 3875
3873 3876
3873 4501
3874 3875
3874 3876
3874 3878
3874 6178
3875 3876
3875 3877
3875 3878
3875 3879
3876 3877
3876 3878
3876 3879
3876 3880
3877 3879
3877 3880
3877 3881
3878 3879
3878 3880
3878 3881
3879 3880
3879 3882
3879 3883
3879 6107
3879 4363
3880 3882
3880 3883
3880 3884
3880 6863
3881 3882
3881 3883
3881 3884
3882 3883
3882 3886
3882 7039
3882 5593
3883 3884
3883 3886
3883 4012
3883 5845
3884 3885
3884 3886
3884 3887
3884 7354
3885 3886
3885 3888
3885 3889
3886 3887
3886 3888
3886 3889
3886 3890
3887 3888
3887 3889
3887 3890
3887 3891
3887 6464
3888 3889
3888 3891
3888 3892
3889 3890
3889 3892
3889 3893
3890 3892
3890 3894
3890 7919
3890 7188
3891 3892
3891 3893
3891 3894
3891 3895
3891 4000
3892 3893
3892 3894
3892 3895
3892 3896
3892 6076
3893 3894
3893 3895
3893 3896
3893 3897
3894 3895
3894 3896
3894 3897
3894 3898
3895 3896
3895 3897
3895 3898
3895 3899
3895 7881
3896 3897
3896 3898
3896 3899
3896 3900
3897 3898
3897 3899
3897 3900
3897 3901
3898 3899
3898 3900
3898 3901
3898 3902
3898 6329
3899 3900
3899 3901
3899 3902
3899 3903
3900 3901
3900 3902
3900 3903
3900 3904
3901 3902
3901 3903
3901 3905
3901 8110
3902 3903
3902 3904
3902 3905
3902 5058
3903 3904
3903 3905
3903 3906
3903 3907
3903 9877
3904 3905
3904 3906
3904 3907
3904 3908
3905 3906
3905 3907
3905 3908
3905 3909
3906 3907
3906 3908
3906 4404
3906 7524
3907 3908
3907 3909
3907 3911
3907 6634
3907 4840
3908 3909
3908 3910
3908 3911
3908 3912
3909 3910
3909 3911
3909 3912
3909 3913
3910 3911
3910 3912
3910 3913
3910 3914
3910 7173
3910 7909
3911 3912
3911 3913
3911 3914
3911 3915
3912 3913
3912 3914
3912 3916
3912 3996
3913 3914
3913 3915
3913 3916
3913 4063
3913 7841
3914 3915
3914 3916
3914 3918
3914 4789
3915 3916
3915 3917
3915 3918
3915 3919
3915 7051
3915 6250
3916 3917
3916 3919
3916 3920
3917 3918
3917 3919
3917 3920
3917 3921
3918 3920
3918 3922
3918 5419
3919 3920
3919 3922
3919 3923
3920 3921
3920 3924
3920 6985
3921 3922
3921 3923
3921 3924
3921 3925
3921 8950
3922 3923
3922 3924
3922 3925
3922 3926
3923 3926
3923 3927
3924 3925
3924 3926
3924 3927
3924 3928
3925 3926
3925 3927
3925 3928
3925 3929
3926 3927
3926 3928
3926 3929
3926 3930
3927 3929
3927 3930
3927 3931
3928 3931
3928 3932
3928 6150
3928 4367
3928 6523
3929 3930
3929 3931
3929 3932
3929 3933
3929 8767
3930 3931
3930 3932
3930 3933
3930 3934
3930 9402
3931 3932
3931 3933
3931 3934
3931 3935
3932 3933
3932 3934
3932 3935
3932 3936
3932 9884
3933 3934
3933 3935
3933 3936
3933 3937
3934 3936
3934 3938
3934 4085
3935 3936
3935 3937
3935 3938
3935 3939
3936 3937
3936 3938
3936 3939
3936 3940
3936 4350
3937 3938
3937 3940
3937 3941
3937 8937
3938 3939
3938 3940
3938 3942
3939 3940
3939 3941
3939 3942
3939 3943
3940 3941
3940 3942
3940 3943
3941 3942
3941 3943
3941 3944
3941 3945
3941 8960
3942 3943
3942 3944
3942 3945
3942 3946
3943 3944
3943 3945
3943 3946
3943 3947
3944 3945
3944 3946
3944 3947
3944 9777
3945 3946
3945 3947
3945 3948
3945 3949
3946 3947
3946 3948
3946 3949
3946 3950
3946 4418
3947 3948
3947 3949
3947 3950
3947 6920
3948 3950
3948 3951
3948 3952
3948 9348
3948 7955
3949 3950
3949 3952
3949 3953
3950 3951
3950 3952
3950 3953
3950 3954
3950 6366
3951 3952
3951 3953
3951 3954
3951 3955
3951 7281
3952 3953
3952 3954
3952 3955
3952 3956
3953 3954
3953 3955
3953 3956
3953 3957
3954 3955
3954 3956
3954 3957
3954 3958
3955 3956
3955 3957
3955 3958
3955 3959
3956 3957
3956 3958
3956 3959
3956 3960
3957 3958
3957 3959
3957 3960
3957 3961
3958 3959
3958 3960
3958 3961
3958 3962
3959 3960
3959 3961
3959 3962
3959 3963
3960 3961
3960 3962
3960 3963
3960 3964
3961 3962
3961 3963
3961 3964
3961 3965
3961 7043
3962 3963
3962 3964
3962 3965
3962 3966
3963 3964
3963 3966
3963 3967
3964 3965
3964 3966
3964 3967
3964 3968
3964 9941
3965 3967
3965 3969
3966 3967
3966 3968
3966 3969
3966 3970
3967 3968
3967 3969
3967 3970
3968 3969
3968 3970
3968 3971
3968 6695
3969 3970
3969 3971
3969 3972
3969 3973
3969 4062
3970 3971
3970 3972
3970 3974
3970 6959
3971 3972
3971 3973
3971 3974
3971 3975
3972 3973
3972 3974
3972 3975
3972 3976
3973 3974
3973 3975
3973 3976
3973 3977
3974 3975
3974 3976
3974 3977
3974 3978
3975 3976
3975 3977
3975 3978
3975 3979
3975 7404
3976 3978
3976 3980
3976 5709
3977 3978
3977 3979
3977 3980
3977 3981
3978 3980
3978 3981
3978 3982
3979 3980
3979 3981
3979 3982
3979 3983
3980 3981
3980 3982
3980 3983
3980 3984
3981 3982
3981 3983
3981 3985
3981 6002
3982 3983
3982 3984
3982 3985
3982 3986
3983 3985
3983 3986
3983 3987
3983 6469
3984 3985
3984 3987
3984 3988
3984 6982
3984 7640
3985 3987
3985 3988
3985 3989
3985 9365
3985 4176
3986 3987
3986 3988
3986 3990
3987 3988
3987 3989
3987 3990
3987 3991
3988 3989
3988 3990
3988 3991
3988 3992
3988 6097
3989 3990
3989 3991
3989 3992
3989 3993
3990 3991
3990 3993
3990 3994
3990 8028
3991 3992
3991 3993
3991 3995
3991 5770
3991 7575
3992 3993
3992 3995
3992 3996
3993 3994
3993 3995
3993 3996
3993 3997
3994 3995
3994 3996
3994 3997
3994 3998
3994 6533
3995 3997
3995 3998
3995 3999
3995 5032
3996 3997
3996 3998
3996 3999
3996 4000
3997 3998
3997 3999
3997 4000
3997 4001
3998 4000
3998 4001
3998 4002
3998 6067
3999 4001
3999 4002
3999 4003
3999 6521
4000 4001
4000 4003
4001 4002
4001 4004
4001 4005
4001 5931
4002 4003
4002 4004
4002 4005
4003 4004
4003 4006
4003 4007
4003 9154
4004 4005
4004 4006
4004 4007
4004 4008
4005 4006
4005 4007
4005 4008
4005 4009
4006 4007
4006 4008
4006 4009
4007 4008
4007 4009
4007 4010
4007 4011
4008 4009
4008 4011
4008 4012
4008 6360
4008 9254
4009 4010
4009 4011
4009 4012
4009 4013
4010 4011
4010 4012
4010 4013
4010 4014
4011 4012
4011 4013
4011 4014
4012 4013
4012 4014
4012 4016
4012 5273
4013 4014
4013 4015
4013 4016
4013 4017
4014 4015
4014 4016
4014 4017
4014 4018
4015 4016
4015 4017
4015 4018
4015 4019
4016 4017
4016 4018
4016 4019
4016 4020
4017 4018
4017 4019
4017 4020
4017 4021
4018 4019
4018 4020
4018 4021
4019 4020
4019 4021
4019 4022
4019 4023
4019 7899
4020 4021
4020 4022
4020 4023
4020 4024
4021 4022
4021 4023
4021 4024
4021 4025
4022 4023
4022 4024
4022 4025
4022 4026
4023 4024
4023 4025
4023 4026
4023 4027
4024 4025
4024 4026
4024 4027
4024 4028
4025 4026
4025 4027
4025 4028
4025 4029
4026 4027
4026 4028
4026 4029
4026 9379
4027 4028
4027 4029
4027 4030
4027 4031
4028 4029
4028 4030
4028 4031
4028 4032
4029 4031
4029 4032
4029 4033
4029 4384
4030 4031
4030 4032
4030 4033
4030 4034
4031 4032
4031 4033
4031 4034
4031 4035
4032 4033
4032 4034
4032 4035
4032 4036
4032 5733
4033 4035
4033 4036
4033 4037
4034 4036
4034 4037
4034 4038
4034 8862
4035 4036
4035 4037
4035 4038
4035 4039
4036 4037
4036 4038
4036 4039
4036 4040
4036 5420
4037 4038
4037 4039
4037 4040
4037 4041
4038 4039
4038 4041
4038 5493
4039 4040
4039 4041
4039 4042
4039 4043
4039 5072
4040 4041
4040 4042
4040 4043
4040 4044
4041 4042
4041 4044
4041 4045
4041 6047
4042 4043
4042 4044
4042 4045
4042 4046
4043 4044
4043 4045
4043 4046
4043 4047
4044 4045
4044 4046
4044 4047
4044 4048
4045 4046
4045 4047
4045 4048
4045 4049
4046 4047
4046 4049
4046 4050
4047 4049
4047 4050
4047 4051
4047 7605
4048 4049
4048 4050
4048 4051
4048 4052
4049 4050
4049 4051
4049 4053
4049 7118
4050 4051
4050 4052
4050 4053
4050 4054
4050 8675
4050 9848
4051 4052
4051 4053
4051 4054
4051 4055
4052 4053
4052 4054
4052 4055
4052 4056
4052 4497
4053 4054
4053 4055
4053 4056
4053 4057
4054 4055
4054 4056
4054 4057
4054 4058
4055 4057
4055 4058
4055 4059
4056 4057
4056 4058
4056 4059
4056 4060
4056 6126
4057 4058
4057 4059
4057 4060
4057 4061
4058 4059
4058 4060
4058 4061
4058 4062
4059 4060
4059 4061
4059 4062
4059 4063
4059 6646
4060 4061
4060 4062
4060 4063
4060 4064
4061 4062
4061 4063
4061 4064
4061 4065
4062 4063
4062 4064
4062 4066
4063 4064
4063 4065
4063 4067
4064 4065
4064 4066
4064 4067
4064 9917
4065 4066
4065 4068
4065 4069
4065 6892
4065 6694
4066 4067
4066 4068
4066 4069
4066 4070
4066 9081
4067 4068
4067 4069
4067 4070
4067 4071
4068 4069
4068 4071
4068 4072
4069 4070
4069 4071
4069 4072
4069 4073
4069 7546
4070 4071
4070 4073
4070 4074
4070 8239
4070 7289
4071 4072
4071 4073
4071 4074
4072 4073
4072 4074
4072 4075
4072 4076
4073 4074
4073 4075
4073 4076
4073 4077
4074 4075
4074 4076
4074 4077
4074 4078
4075 4076
4075 4077
4075 4078
4075 4079
4076 4077
4076 4078
4076 4079
4076 4080
4077 4078
4077 4079
4077 4080
4077 4081
4078 4079
4078 4082
4078 9044
4078 9676
4079 4080
4079 4081
4079 4082
4079 4083
4080 4081
4080 4082
4080 4083
4080 4084
4081 4082
4081 4083
4081 4084
4081 4085
4082 4083
4082 4084
4082 4085
4082 4086
4083 4084
4083 4085
4083 4086
4083 4087
4084 4085
4084 4086
4084 4087
4084 4088
4085 4086
4085 4087
4085 4088
4085 8419
4086 4087
4086 4088
4086 4089
4086 4090
4086 7194
4087 4088
4087 4089
4087 4090
4087 4091
4087 9443
4088 4089
4088 4090
4088 4091
4088 4092
4088 5981
4089 4090
4089 4091
4089 4093
4089 5644
4090 4091
4090 4092
4090 4093
4090 4094
4091 4092
4091 4093
4091 4094
4091 4095
4092 4093
4092 4095
4092 4096
4093 4094
4093 4095
4093 4096
4093 4097
4094 4095
4094 4096
4094 4097
4094 4098
4095 4096
4095 4097
4095 4098
4096 4099
4096 4100
4097 4098
4097 4099
4097 4100
4097 4101
4098 4099
4098 4100
4098 4101
4098 4102
4098 8207
4099 4100
4099 4101
4099 4102
4099 4103
4100 4101
4100 4102
4100 4103
4100 4104
4100 5670
4101 4102
4101 4103
4101 4104
4101 4105
4102 4103
4102 4104
4102 4105
4102 4106
4102 8286
4103 4104
4103 4105
4103 4106
4103 4107
4104 4105
4104 4106
4104 4107
4104 4108
4105 4106
4105 4107
4105 4108
4105 4109
4106 4108
4106 4109
4106 4110
4106 4569
4106 8456
4107 4108
4107 4109
4107 4110
4107 4111
4108 4109
4108 4110
4108 4111
4108 4112
4109 4110
4109 4111
4109 4112
4109 4113
4110 4111
4110 4112
4110 4113
4111 4112
4111 4113
4111 4114
4111 4115
4112 4113
4112 4114
4112 4115
4112 4116
4113 4114
4113 4115
4113 4116
4113 4117
4114 4115
4114 4116
4114 4117
4114 4118
4115 4116
4115 4117
4115 4118
4115 4119
4116 4118
4116 4119
4116 4120
4116 9974
4117 4118
4117 4119
4117 4121
4117 7593
4118 4119
4118 4120
4118 4121
4118 4122
4119 4120
4119 4121
4119 4122
4119 4123
4120 4121
4120 4122
4120 4123
4120 4124
4121 4122
4121 4123
4121 4124
4121 4125
4122 4123
4122 4124
4122 4125
4122 4126
4123 4124
4123 4125
4123 4126
4123 4127
4124 4125
4124 4126
4124 4127
4124 4128
4125 4126
4125 4127
4125 4128
4125 4129
4126 4127
4126 4128
4126 4129
4126 4130
4127 4128
4127 4129
4127 4130
4127 4131
4128 4131
4128 4132
4128 9498
4128 5491
4129 4130
4129 4131
4129 4132
4129 4133
4130 4131
4130 4132
4130 4133
4130 4134
4131 4132
4131 4133
4131 4134
4131 4135
4132 4133
4132 4134
4132 4135
4132 4136
4133 4134
4133 4135
4133 4136
4133 4137
4134 4135
4134 4136
4134 4137
4134 4138
4135 4136
4135 4137
4135 4138
4135 4139
4136 4137
4136 4139
4136 4140
4136 4255
4136 7573
4137 4138
4137 4139
4137 4140
4137 4141
4138 4139
4138 4140
4138 4141
4138 8624
4139 4140
4139 4141
4139 4142
4139 7966
4139 6379
4140 4141
4140 4142
4140 4143
4140 4144
4141 4142
4141 4143
4141 4144
4141 4145
4142 4143
4142 4144
4142 4145
4142 4146
4143 4145
4143 4146
4143 4147
4144 4145
4144 4146
4144 4147
4144 4148
4145 4146
4145 4147
4145 4148
4145 4149
4145 7279
4146 4148
4146 4149
4146 4150
4146 9800
4146 4517
4147 4148
4147 4149
4147 4150
4147 4151
4148 4149
4148 4150
4148 4151
4148 4152
4149 4151
4149 8264
4149 8663
4150 4151
4150 4152
4150 4153
4150 4154
4151 4153
4151 4154
4151 8464
4151 7319
4152 4153
4152 4154
4152 4155
4152 4156
4152 7703
4152 5575
4153 4154
4153 4155
4153 4157
4154 4155
4154 4156
4154 4157
4154 4158
4154 8714
4155 4156
4155 4157
4155 4159
4155 5321
4155 6385
4156 4157
4156 4158
4156 4159
4156 4160
4156 8354
4157 4158
4157 4160
4157 4161
4157 6533
4157 4220
4158 4159
4158 4160
4158 4162
4158 4395
4159 4160
4159 4161
4159 4162
4160 4161
4160 4163
4160 4164
4160 9323
4161 4162
4161 4163
4161 4164
4161 4165
4162 4163
4162 4164
4162 4165
4163 4164
4163 4165
4163 4166
4163 7928
4164 4165
4164 4166
4164 4167
4164 4168
4165 4166
4165 4167
4165 4168
4165 4169
4166 4167
4166 4168
4166 4169
4166 4170
4167 4169
4167 7263
4167 7887
4167 8664
4168 4169
4168 4171
4168 4172
4168 7393
4169 4171
4169 4172
4169 4173
4170 4171
4170 4172
4170 4173
4170 4174
4171 4172
4171 4173
4171 4174
4171 4175
4172 4173
4172 4174
4172 4175
4172 4176
4173 4174
4173 4175
4173 4177
4173 5680
4173 9332
4174 4175
4174 4176
4174 4177
4174 4178
4174 4851
4174 9049
4175 4176
4175 4177
4175 4178
4175 4179
4176 4178
4176 6206
4177 4178
4177 4179
4177 4180
4177 4181
4178 4179
4178 4180
4178 4181
4178 4182
4178 5794
4179 4180
4179 4181
4179 4182
4179 4183
4180 4181
4180 4182
4180 4183
4180 4184
4180 9505
4181 4182
4181 4184
4181 4185
4181 7457
4182 4183
4182 4184
4182 4185
4182 4186
4183 4184
4183 4185
4183 4187
4183 9840
4184 4185
4184 4186
4184 4188
4185 4186
4185 4187
4185 4188
4185 4189
4186 4187
4186 4188
4186 4189
4186 4190
4187 4188
4187 4190
4187 4191
4187 6521
4188 4189
4188 4190
4188 4191
4188 7560
4189 4190
4189 4192
4189 4193
4189 6024
4190 4191
4190 4192
4190 4193
4190 4194
4191 4193
4191 4194
4191 4195
4192 4193
4192 4194
4192 4195
4192 4196
4193 4194
4193 4195
4193 4197
4194 4195
4194 4196
4194 4197
4194 4198
4195 4197
4195 4198
4195 4199
4195 6734
4196 4197
4196 4198
4196 4200
4196 8885
4197 4198
4197 4199
4197 4200
4197 4201
4198 4199
4198 4200
4198 4201
4198 4202
4199 4200
4199 4202
4199 4203
4200 4202
4200 4203
4200 4204
4201 4202
4201 4203
4201 4204
4201 4205
4201 8668
4202 4203
4202 4205
4202 4206
4202 8259
4203 4204
4203 4205
4203 4206
4203 4207
4203 7155
4204 4206
4204 4207
4204 4290
4205 4206
4205 4207
4205 4208
4205 7634
4206 4207
4206 4209
4206 4835
4206 5032
4207 4208
4207 4209
4207 4210
4207 4211
4208 4209
4208 4210
4208 4211
4208 4212
4208 7511
4209 4210
4209 4211
4209 4212
4209 4213
4210 4211
4210 4212
4210 4213
4210 4214
4211 4212
4211 4213
4211 4215
4211 9091
4212 4214
4212 4215
4212 4216
4213 4214
4213 4215
4213 4216
4213 4217
4213 5040
4214 4215
4214 4216
4214 4217
4214 4218
4215 4216
4215 4217
4215 4219
4216 4217
4216 4218
4216 4220
4216 6290
4217 4218
4217 4219
4217 4220
4217 4221
4217 8153
4218 4219
4218 4220
4218 4221
4218 4222
4219 4220
4219 4221
4219 4222
4219 4223
4219 9742
4220 4221
4220 4222
4220 4224
4221 4222
4221 4223
4221 4224
4221 4225
4221 7427
4222 4223
4222 4224
4222 4225
4222 4226
4222 5966
4223 4224
4223 4225
4223 4226
4223 4227
4224 4225
4224 4226
4224 4228
4225 4226
4225 4227
4225 4229
4225 7309
4226 4227
4226 4228
4226 4229
4226 4230
4227 4228
4227 4229
4227 4230
4227 4231
4228 4229
4228 4230
4228 4231
4228 4232
4228 8096
4229 4230
4229 4231
4229 4232
4230 4231
4230 4232
4230 4233
4230 4234
4231 4232
4231 4233
4231 4234
4231 4235
4232 4233
4232 4234
4232 4235
4232 4236
4233 4234
4233 4235
4233 4236
4233 4237
4234 4235
4234 4236
4234 4238
4234 5846
4235 4236
4235 4237
4235 4238
4235 4239
4236 4237
4236 4238
4236 4239
4236 4240
4237 4238
4237 4239
4237 4241
4237 6426
4237 5960
4238 4239
4238 4240
4238 4241
4238 4242
4239 4240
4239 4242
4239 4243
4239 5615
4240 4242
4240 4243
4240 4244
4240 8349
4241 4242
4241 4243
4241 4244
4241 4245
4242 4243
4242 4244
4242 4245
4242 4246
4242 4823
4243 4244
4243 4245
4243 4246
4243 4247
4244 4245
4244 4246
4244 4247
4244 4248
4245 4246
4245 4247
4245 4248
4245 4249
4245 5247
4246 4247
4246 4248
4246 4249
4246 4250
4247 4248
4247 4250
4247 4310
4248 4249
4248 4250
4248 4251
4248 4252
4249 4250
4249 4251
4249 4252
4249 4253
4250 4251
4250 4253
4250 4254
4251 4252
4251 4253
4251 4254
4251 4255
4252 4253
4252 4254
4252 4255
4252 4256
4253 4254
4253 4255
4253 4256
4253 4257
4254 4255
4254 4256
4254 4257
4254 4258
4255 4256
4255 4257
4255 4258
4255 4259
4256 4257
4256 4258
4256 4259
4256 4260
4257 4258
4257 4259
4257 4260
4257 4261
4258 4259
4258 4261
4258 4262
4258 9791
4259 4260
4259 4261
4259 4262
4259 4263
4260 4261
4260 4262
4260 4263
4260 9590
4261 4263
4261 4264
4261 4265
4262 4263
4262 4264
4262 4265
4262 4266
4263 4264
4263 4265
4263 4266
4263 4267
4263 5878
4264 4266
4264 4267
4264 4268
4264 5836
4264 8027
4265 4266
4265 4267
4265 4268
4265 4269
4266 4267
4266 4268
4266 4270
4267 4268
4267 4269
4267 4270
4267 4271
4267 8800
4268 4269
4268 4271
4268 5998
4268 9252
4269 4270
4269 4271
4269 4272
4269 4273
4270 4272
4270 4273
4270 4274
4271 4272
4271 4273
4271 4274
4271 4275
4272 4273
4272 4274
4272 4275
4272 4276
4273 4275
4273 4276
4273 4277
4273 4653
4274 4276
4274 4277
4274 4278
4275 4276
4275 4277
4275 4278
4275 4279
4276 4277
4276 4278
4276 4279
4276 4280
4277 4278
4277 4279
4277 4280
4277 4281
4278 4280
4278 4281
4278 4282
4279 4280
4279 4281
4279 4282
4279 4283
4279 6102
4279 7204
4280 4281
4280 4282
4280 4283
4280 4284
4281 4282
4281 4283
4281 4285
4281 5129
4282 4283
4282 4284
4282 4285
4282 4286
4283 4284
4283 4286
4283 4287
4283 5381
4284 4285
4284 4286
4284 4287
4284 4288
4285 4286
4285 4287
4285 4289
4285 8706
4286 4288
4286 4289
4286 4290
4286 9311
4286 9464
4287 4288
4287 4289
4287 4291
4287 5044
4288 4289
4288 4290
4288 4291
4288 4292
4289 4291
4289 4292
4289 4293
4289 6524
4290 4291
4290 4292
4290 4293
4290 4294
4290 6327
4291 4292
4291 4293
4291 4294
4291 4295
4292 4293
4292 4294
4292 4296
4292 9578
4292 4318
4293 4294
4293 4295
4293 4296
4293 4297
4294 4295
4294 4297
4294 4298
4294 4397
4295 4296
4295 4297
4295 4298
4295 4299
4296 4297
4296 4298
4296 4299
4296 4300
4297 4298
4297 4299
4297 4300
4297 4301
4297 8042
4298 4299
4298 4300
4298 4301
4298 4302
4299 4300
4299 4301
4299 4302
4299 4303
4300 4301
4300 4302
4300 4304
4301 4302
4301 4304
4301 4305
4301 6656
4302 4303
4302 4304
4302 4305
4302 4306
4303 4304
4303 4305
4303 4306
4303 4307
4304 4305
4304 4306
4304 5779
4305 4306
4305 4307
4305 4308
4305 4309
4306 4308
4306 4309
4306 4310
4306 5051
4307 4309
4307 4310
4307 7025
4308 4309
4308 4311
4308 4312
4308 6110
4309 4311
4309 4312
4309 4313
4310 4311
4310 4312
4310 4313
4310 4314
4310 5753
4311 4312
4311 4313
4311 4314
4312 4313
4312 4314
4312 4315
4312 4316
4312 9763
4313 4314
4313 4315
4313 4316
4313 4317
4314 4315
4314 4316
4314 4317
4314 4318
4315 4316
4315 4317
4315 4318
4315 4319
4316 4317
4316 4319
4316 4320
4316 4812
4317 4318
4317 4319
4317 4320
4317 4321
4317 4410
4318 4319
4318 4320
4318 4321
4319 4320
4319 4321
4319 4322
4319 4323
4320 4321
4320 4322
4320 4323
4320 4324
4321 4323
4321 4324
4321 4325
4322 4323
4322 4324
4322 4325
4322 4326
4323 4324
4323 4325
4323 4326
4324 4325
4324 4326
4324 4327
4324 4328
4324 5070
4325 4326
4325 4327
4325 4328
4325 4329
4325 5780
4326 4327
4326 4328
4326 4329
4326 4330
4327 4328
4327 4329
4327 4330
4327 4331
4328 4329
4328 4330
4328 4331
4328 4332
4329 4330
4329 4331
4329 4333
4329 8866
4329 6159
4330 4331
4330 4332
4330 4333
4330 4334
4330 5660
4331 4332
4331 4333
4331 4334
4331 4335
4332 4333
4332 4334
4332 4335
4332 7733
4333 4334
4333 4335
4333 4336
4333 5178
4334 4336
4334 4338
4335 4336
4335 4337
4335 4338
4335 4339
4336 4337
4336 4338
4336 4339
4336 4340
4336 6010
4336 6098
4337 4338
4337 4339
4337 4340
4337 4341
4338 4339
4338 4340
4338 4341
4339 4340
4339 4341
4339 4342
4339 4343
4340 4341
4340 4342
4340 4343
4340 4344
4341 4342
4341 4343
4341 4344
4341 4345
4341 7985
4342 4343
4342 4344
4342 4345
4342 4346
4343 4344
4343 4345
4343 4346
4343 4347
4344 4345
4344 4347
4344 4348
4344 4610
4345 4346
4345 4347
4345 4348
4345 4349
4346 4348
4346 4349
4346 4350
4347 4348
4347 4351
4348 4349
4348 4350
4348 4352
4348 7247
4349 4350
4349 4351
4349 4352
4349 4353
4350 4351
4350 4352
4350 4353
4351 4352
4351 4353
4351 4354
4351 4355
4352 4353
4352 4354
4352 4355
4353 4355
4353 4356
4353 4357
4354 4355
4354 4356
4354 4357
4354 4358
4355 4356
4355 4357
4355 4358
4355 4359
4355 5096
4355 8814
4356 4357
4356 4358
4356 4359
4356 4360
4357 4358
4357 4359
4357 4360
4357 4361
4358 4359
4358 4360
4358 4361
4358 4362
4359 4360
4359 4361
4359 4362
4359 4363
4360 4361
4360 4362
4360 4363
4360 4364
4361 4362
4361 4363
4361 4364
4361 4365
4362 4363
4362 4364
4362 4365
4362 4366
4362 9800
4363 4364
4363 4365
4363 4366
4363 4367
4364 4365
4364 4366
4364 4367
4364 4368
4364 4624
4364 5508
4365 4366
4365 4367
4365 4368
4365 4369
4365 7139
4366 4367
4366 4368
4366 4369
4366 4370
4367 4368
4367 4370
4367 4371
4367 6252
4368 4369
4368 4370
4368 4371
4368 4372
4368 5601
4369 4370
4369 4371
4369 4372
4369 4969
4370 4371
4370 4372
4370 4373
4370 4374
4371 4372
4371 4373
4371 4375
4371 4695
4372 4373
4372 4375
4372 4376
4372 9833
4373 4375
4373 4376
4373 4377
4373 8021
4374 4375
4374 4376
4374 4377
4374 4378
4375 4376
4375 4377
4375 4378
4375 4379
4376 4377
4376 4378
4376 4379
4376 4380
4376 4629
4377 4378
4377 4379
4377 4381
4378 4379
4378 4380
4378 4381
4378 4382
4379 4380
4379 4381
4379 4382
4379 4383
4380 4381
4380 4382
4380 4384
4381 4382
4381 4383
4381 4384
4381 4385
4381 8457
4382 4383
4382 4385
4382 4386
4382 8229
4383 4384
4383 4385
4383 4386
4383 4387
4384 4386
4384 4387
4384 4388
4384 9627
4385 4386
4385 4387
4385 4389
4385 6076
4386 4387
4386 4388
4386 4389
4386 4390
4387 4388
4387 4389
4387 4390
4387 8417
4388 4389
4388 4390
4388 4391
4388 4392
4388 4733
4389 4391
4389 4392
4390 4391
4390 4392
4390 4393
4390 4394
4391 4393
4391 4394
4391 4395
4391 9880
4392 4393
4392 4394
4392 4395
4392 4396
4393 4394
4393 4396
4393 4397
4393 5426
4394 4395
4394 4396
4394 4397
4394 4398
4394 5335
4395 4396
4395 4397
4395 4398
4395 4399
4395 8319
4396 4397
4396 4398
4396 4399
4396 4400
4397 4398
4397 4399
4397 4400
4397 4401
4398 4399
4398 4400
4398 4401
4398 7354
4398 9841
4399 4400
4399 4401
4399 4403
4400 4401
4400 4402
4400 4403
4400 4404
4400 7402
4401 4402
4401 4403
4401 4404
4401 4405
4402 4403
4402 4404
4402 4405
4402 4406
4403 4404
4403 4405
4403 4406
4403 4407
4404 4405
4404 4406
4404 4408
4405 4406
4405 4407
4405 4408
4405 4409
4406 4407
4406 4408
4406 4409
4406 4410
4407 4408
4407 4409
4407 4410
4407 4411
4408 4409
4408 4410
4408 4411
4408 4412
4409 4410
4409 4411
4409 4412
4409 4413
4410 4411
4410 4412
4410 6984
4410 5491
4410 8651
4411 4412
4411 4413
4411 4414
4411 4415
4412 4413
4412 4414
4412 4415
4412 4416
4413 4414
4413 4415
4413 4416
4413 4417
4413 9280
4414 4415
4414 4416
4414 4417
4414 4418
4415 4416
4415 4417
4415 4418
4415 4419
4416 4418
4416 4420
4416 6757
4417 4418
4417 4419
4417 4420
4417 4421
4418 4419
4418 4421
4418 5523
4419 4420
4419 4422
4419 4423
4420 4421
4420 4422
4420 4423
4420 4424
4421 4422
4421 4423
4421 4424
4421 4425
4422 4423
4422 4424
4422 4425
4422 4426
4423 4424
4423 4425
4423 4426
4423 4427
4423 9910
4424 4425
4424 4426
4424 4427
4424 4428
4425 4426
4425 4428
4425 4429
4426 4427
4426 4428
4426 4429
4426 4430
4427 4428
4427 4429
4427 4430
4427 4431
4427 7024
4428 4429
4428 4431
4428 4432
4428 5483
4429 4430
4429 4431
4429 4432
4429 4433
4430 4431
4430 4432
4430 4433
4430 4434
4431 4432
4431 4433
4431 4434
4431 4435
4431 8972
4432 4433
4432 4434
4432 4435
4432 4436
4433 4434
4433 4435
4433 4436
4433 4437
4433 5246
4434 4435
4434 4436
4434 4437
4434 8814
4434 6699
4435 4436
4435 4437
4435 4438
4435 4439
4435 4624
4436 4438
4436 4439
4436 4440
4436 7641
4437 4439
4437 4440
4437 4441
4437 8842
4438 4439
4438 4440
4438 4441
4438 4442
4439 4440
4439 4441
4439 4442
4439 4443
4440 4441
4440 4442
4440 4443
4440 6957
4441 4442
4441 4443
4441 4444
4441 4445
4442 4443
4442 4444
4442 4446
4443 4444
4443 4445
4443 4447
4443 7496
4444 4445
4444 4446
4444 4447
4444 4448
4445 4446
4445 4447
4445 4448
4446 4447
4446 4448
4446 4449
4446 4450
4447 4448
4447 4449
4447 4450
4447 4451
4448 4449
4448 4450
4448 4451
4448 4452
4449 4450
4449 4451
4449 4452
4449 4453
4450 4451
4450 4452
4450 4453
4450 4454
4451 4452
4451 4453
4451 4454
4451 4455
4451 4865
4452 4453
4452 4455
4452 4456
4452 5896
4453 4454
4453 4455
4453 4456
4453 4457
4454 4455
4454 4456
4454 4458
4454 7456
4455 4456
4455 4457
4455 4458
4455 4459
4456 4457
4456 4458
4456 4459
4456 4460
4457 4458
4457 4459
4457 4460
4457 4461
4458 4459
4458 4460
4458 4461
4458 4462
4459 4460
4459 4461
4459 4462
4459 4463
4460 4461
4460 4462
4460 4463
4460 4464
4461 4463
4461 8903
4461 9690
4462 4463
4462 4464
4462 4465
4462 4466
4463 4464
4463 4465
4463 4466
4463 7938
4464 4465
4464 4466
4464 4467
4464 4468
4465 4466
4465 4467
4465 4468
4465 4469
4466 4467
4466 4468
4466 4469
4466 4470
4467 4469
4467 4470
4467 4471
4467 5937
4468 4469
4468 4470
4468 4471
4468 4472
4469 4470
4469 4472
4469 4473
4469 8332
4470 4471
4470 4472
4470 4473
4470 4474
4470 5456
4471 4472
4471 4473
4471 4475
4471 9163
4472 4473
4472 4474
4472 4475
4472 4476
4472 7707
4473 4474
4473 4476
4473 4477
4473 8147
4474 4475
4474 4476
4474 4478
4474 5861
4474 8450
4475 4476
4475 4477
4475 4478
4475 4479
4476 4477
4476 4478
4476 4479
4476 4480
4477 4478
4477 4479
4477 4481
4477 5413
4478 4479
4478 4480
4478 4482
4479 4480
4479 4481
4479 4482
4479 4483
4480 4482
4480 4483
4480 4484
4481 4482
4481 4483
4481 4484
4481 4485
4481 7742
4482 4483
4482 4485
4482 4486
4483 4484
4483 4485
4483 4487
4483 9032
4483 8887
4484 4485
4484 4486
4484 4487
4484 4488
4485 4486
4485 4487
4485 4489
4485 8054
4485 9278
4486 4488
4486 4489
4486 4490
4486 6012
4486 9023
4487 4488
4487 4489
4487 4490
4487 4491
4488 4489
4488 4490
4488 4492
4488 4625
4489 4490
4489 4491
4489 4492
4489 4493
4490 4491
4490 4493
4490 4494
4490 7466
4491 4493
4491 4494
4491 4495
4491 6336
4492 4493
4492 4494
4492 4495
4492 4496
4493 4494
4493 4495
4493 4497
4494 4495
4494 4496
4494 4497
4494 4498
4494 6043
4495 4496
4495 4497
4495 4498
4495 4499
4496 4497
4496 4498
4496 4499
4496 4500
4497 4500
4497 4501
4497 9572
4497 9773
4498 4500
4498 4502
4498 4614
4499 4500
4499 4501
4499 4502
4499 4503
4500 4501
4500 4502
4500 4503
4500 4504
4501 4502
4501 4503
4501 4505
4502 4503
4502 4504
4502 4505
4502 4506
4503 4505
4503 4506
4503 4507
4503 4975
4503 7229
4504 4505
4504 4506
4504 4507
4504 4508
4505 4506
4505 4507
4505 4508
4505 4509
4506 4507
4506 4508
4506 4509
4506 4510
4507 4508
4507 4509
4507 4510
4507 4511
4508 4509
4508 4510
4508 4511
4508 4512
4509 4510
4509 4511
4509 4512
4509 4513
4510 4511
4510 4512
4510 4513
4510 4514
4511 4512
4511 4513
4511 4514
4511 4515
4511 8913
4511 9318
4511 8796
4512 4513
4512 4514
4512 4515
4512 4516
4513 4514
4513 4515
4513 4516
4513 4517
4513 9691
4513 9899
4514 4515
4514 4516
4514 4517
4514 4518
4514 7156
4515 4516
4515 4517
4515 4518
4515 4519
4516 4517
4516 4518
4516 4519
4516 4520
4517 4520
4517 4521
4517 5883
4518 4519
4518 4520
4518 4521
4518 4522
4519 4521
4519 4522
4519 4523
4519 5754
4520 4521
4520 4522
4520 4523
4520 6847
4521 4522
4521 4523
4521 4524
4521 4525
4522 4523
4522 4524
4522 4526
4522 6025
4523 4524
4523 4526
4523 4527
4524 4525
4524 4526
4524 4527
4524 4528
4525 4526
4525 4527
4525 4529
4526 4527
4526 4528
4526 4529
4526 6982
4527 4528
4527 4529
4527 4530
4528 4529
4528 4530
4528 4531
4528 4532
4529 4530
4529 4531
4529 4532
4529 4533
4530 4531
4530 4532
4530 4533
4530 4534
4531 4532
4531 4533
4531 4534
4531 4535
4532 4533
4532 4534
4532 4535
4532 4536
4532 5229
4533 4534
4533 4535
4533 4536
4533 4537
4534 4535
4534 4536
4534 4537
4534 4538
4534 9008
4535 4536
4535 4537
4535 4538
4535 4539
4535 6522
4536 4537
4536 4538
4536 4540
4536 4813
4537 4538
4537 4539
4537 4540
4537 4541
4538 4539
4538 4540
4538 4541
4538 4542
4539 4540
4539 4541
4539 4542
4539 4543
4540 4541
4540 4542
4540 4543
4541 4542
4541 4544
4541 4650
4542 4543
4542 4544
4542 4545
4542 4546
4543 4544
4543 4545
4543 4546
4543 4547
4544 4545
4544 4546
4544 4547
4544 6966
4544 5387
4545 4546
4545 4547
4545 4548
4545 4549
4546 4547
4546 4548
4546 4549
4546 4550
4547 4548
4547 4549
4547 4550
4547 4551
4548 4549
4548 4550
4548 4551
4548 4552
4549 4550
4549 4551
4549 4552
4549 4553
4550 4551
4550 4552
4550 4553
4550 4554
4551 4552
4551 4553
4551 4554
4551 4555
4552 4553
4552 4555
4552 4556
4553 4554
4553 4555
4553 4556
4553 4557
4554 4555
4554 4556
4554 4557
4554 4558
4555 4556
4555 4557
4555 4558
4555 4559
4556 4558
4556 4559
4556 4560
4556 7189
4556 8487
4557 4558
4557 4559
4557 4560
4557 4561
4557 4577
4558 4559
4558 4560
4558 4561
4558 4562
4559 4560
4559 4561
4559 4562
4559 4563
4560 4561
4560 4562
4560 4563
4560 4564
4561 4562
4561 4563
4561 4564
4561 4565
4562 4563
4562 4564
4562 4566
4563 4564
4563 4566
4563 4567
4564 4565
4564 4566
4564 4567
4564 4568
4565 4567
4565 4568
4565 4569
4565 9352
4566 4567
4566 4568
4566 4569
4566 4570
4567 4568
4567 4569
4567 4570
4567 4571
4567 8753
4567 5745
4568 4569
4568 4570
4568 4571
4568 5024
4569 4570
4569 4571
4569 4572
4569 4573
4570 4571
4570 4572
4570 4573
4570 4574
4571 4572
4571 4573
4571 4574
4571 4575
4572 4573
4572 4574
4572 4575
4572 4576
4573 4575
4573 4576
4573 4577
4573 6626
4573 9242
4574 4575
4574 4576
4574 4577
4574 4578
4575 4576
4575 4579
4575 6205
4575 5808
4576 4577
4576 4578
4576 8360
4576 7646
4577 4579
4577 4580
4577 4581
4578 4579
4578 4580
4578 4581
4578 4582
4579 4580
4579 4582
4579 4583
4579 5500
4580 4581
4580 4582
4580 4583
4580 4584
4581 4582
4581 4583
4581 4584
4581 4585
4582 4583
4582 4584
4582 4585
4582 4586
4583 4584
4583 4585
4583 4586
4583 4724
4584 4585
4584 4586
4584 4587
4584 4588
4585 4587
4585 4589
4585 6715
4585 9920
4585 5569
4586 4588
4586 4589
4586 4590
4586 8782
4587 4588
4587 4589
4587 4590
4587 4591
4588 4589
4588 4590
4588 4591
4588 4592
4589 4590
4589 4591
4589 4592
4589 4593
4590 4591
4590 4592
4590 4593
4590 4594
4591 4592
4591 4593
4591 4594
4591 4595
4592 4593
4592 4595
4592 4596
4593 4594
4593 4595
4593 4596
4593 4597
4594 4595
4594 4596
4594 4597
4594 4598
4595 4596
4595 4597
4595 4598
4595 6176
4596 4597
4596 4598
4596 4599
4596 4600
4597 4598
4597 4599
4597 4600
4597 4601
4598 4599
4598 4600
4598 4601
4598 4602
4599 4600
4599 4602
4599 4603
4600 4601
4600 4602
4600 4603
4600 4604
4601 4602
4601 4603
4601 4604
4601 4605
4602 4603
4602 4604
4602 4605
4602 4606
4603 4604
4603 4605
4603 4606
4603 9376
4604 4605
4604 4606
4604 4607
4604 4608
4605 4606
4605 4607
4605 4608
4605 4609
4606 4607
4606 4609
4606 4610
4606 6268
4606 6665
4607 4608
4607 4609
4607 4610
4607 4611
4608 4609
4608 4610
4608 4611
4608 4612
4609 4611
4609 4612
4609 4613
4610 4612
4610 4613
4610 4614
4611 4612
4611 4613
4611 4614
4611 4615
4612 4613
4612 4614
4612 4615
4612 4616
4613 4614
4613 4615
4613 4616
4613 4617
4614 4615
4614 4616
4614 4617
4614 4618
4615 4617
4615 4618
4615 4619
4615 9048
4616 4617
4616 4618
4616 4619
4616 4620
4617 4619
4617 4620
4617 4621
4618 4619
4618 4620
4618 4621
4618 4622
4619 4620
4619 4621
4619 4622
4619 4623
4620 4621
4620 4622
4620 4623
4620 4624
4621 4622
4621 4623
4621 4624
4621 4625
4622 4623
4622 4624
4622 4625
4622 4626
4623 4624
4623 4625
4623 4626
4624 4626
4624 4627
4625 4626
4625 4627
4625 4628
4625 4629
4625 8663
4626 4627
4626 4628
4626 4629
4626 4630
4627 4628
4627 4629
4627 4630
4627 4631
4628 4629
4628 4630
4628 4631
4628 4632
4628 7703
4629 4630
4629 4631
4629 4632
4630 4631
4630 4633
4630 4634
4630 4786
4631 4632
4631 4633
4631 4634
4631 4635
4631 9181
4632 4633
4632 4634
4632 4635
4632 4636
4633 4634
4633 4635
4633 4637
4633 6946
4634 4635
4634 4636
4634 4637
4634 4638
4635 4636
4635 4637
4635 4638
4635 4639
4635 5580
4636 4638
4636 4639
4636 8305
4636 6252
4637 4638
4637 4639
4637 4640
4637 4641
4638 4640
4638 4641
4638 4642
4639 4640
4639 4641
4639 4642
4639 4643
4640 4641
4640 4642
4640 4644
4640 9142
4641 4642
4641 4643
4641 4644
4641 4645
4642 4643
4642 4644
4642 4645
4642 4646
4643 4645
4643 4646
4643 4647
4644 4645
4644 4646
4644 4647
4644 4648
4645 4646
4645 4647
4645 4648
4645 4649
4646 4647
4646 4648
4646 4649
4646 4650
4647 4648
4647 4649
4647 4650
4647 6314
4648 4649
4648 4650
4648 4651
4648 4652
4649 4650
4649 4651
4649 4652
4649 4653
4650 4651
4650 4653
4650 4654
4650 9312
4651 4652
4651 4653
4651 4654
4651 4655
4652 4653
4652 4655
4652 4656
4652 9840
4653 4654
4653 4655
4653 4656
4653 4657
4654 4655
4654 4656
4654 4657
4654 4658
4654 8172
4655 4656
4655 4657
4655 4658
4655 4659
4655 8499
4656 4657
4656 4658
4656 4659
4656 4660
4657 4658
4657 4659
4657 4660
4657 4661
4658 4659
4658 4660
4658 4661
4658 4662
4659 4660
4659 4661
4659 4662
4659 4663
4659 9941
4660 4661
4660 4662
4660 4663
4660 4664
4661 4662
4661 4663
4661 4664
4661 4665
4661 9264
4662 4663
4662 4664
4662 4665
4662 4666
4663 4664
4663 4665
4663 4666
4663 4667
4664 4665
4664 4666
4664 4667
4664 4668
4665 4666
4665 4668
4665 4669
4665 9332
4666 4667
4666 4668
4666 4669
4666 4670
4667 4668
4667 4669
4667 4670
4667 4671
4668 4669
4668 4670
4668 4671
4668 4672
4669 4670
4669 4671
4669 4672
4669 9944
4670 4671
4670 4672
4670 4673
4670 9256
4671 4672
4671 4673
4671 4674
4671 4675
4671 7063
4672 4673
4672 4674
4672 4675
4672 7698
4673 4674
4673 4675
4673 4676
4673 4677
4674 4675
4674 4676
4674 4677
4674 4678
4675 4676
4675 4677
4675 4678
4675 4679
4676 4677
4676 4678
4676 4679
4676 4680
4677 4678
4677 4680
4677 4681
4677 9398
4677 7050
4678 4679
4678 4680
4678 4681
4678 4682
4678 5703
4679 4680
4679 4681
4679 4682
4679 4683
4680 4681
4680 4682
4680 4683
4680 4684
4681 4682
4681 4683
4681 4684
4681 4685
4682 4683
4682 4684
4682 4685
4682 4686
4683 4684
4683 4685
4683 4686
4683 4687
4684 4685
4684 4687
4684 4688
4685 4686
4685 4688
4685 4689
4685 9700
4686 4687
4686 4688
4686 4689
4686 4690
4686 5719
4687 4688
4687 4689
4687 4690
4687 4691
4688 4689
4688 4690
4688 4692
4689 4690
4689 4691
4689 4692
4689 8839
4690 4691
4690 4692
4690 4693
4690 4694
4691 4692
4691 4693
4691 4694
4691 4695
4691 5296
4692 4693
4692 4694
4692 4695
4692 6705
4693 4694
4693 4695
4693 4696
4693 4697
4694 4695
4694 4696
4694 4697
4694 4698
4695 4696
4695 4697
4695 4698
4695 4699
4696 4697
4696 4698
4696 4699
4696 4700
4697 4698
4697 4699
4697 4700
4697 4701
4698 4699
4698 4700
4698 4701
4698 4702
4699 4700
4699 4701
4699 4703
4700 4701
4700 4702
4700 4703
4700 4704
4701 4702
4701 4703
4701 4704
4701 4705
4702 4703
4702 4704
4702 4705
4702 4706
4703 4704
4703 4705
4703 4706
4703 4707
4704 4705
4704 4706
4704 4707
4704 4708
4705 4706
4705 4707
4705 4708
4705 4709
4706 4707
4706 4708
4706 4709
4706 4710
4707 4708
4707 4709
4707 4710
4708 4709
4708 4710
4708 4711
4708 4712
4709 4710
4709 4711
4709 4712
4709 4713
4709 7047
4710 4711
4710 4712
4710 4713
4710 4714
4711 4712
4711 4713
4711 4714
4711 4715
4712 4713
4712 4714
4712 4715
4712 4716
4713 4714
4713 4715
4713 4716
4713 4717
4714 4715
4714 4716
4714 4717
4714 5500
4715 4716
4715 4717
4715 4718
4715 4719
4716 4717
4716 4718
4716 4719
4716 4720
4717 4718
4717 4719
4717 4720
4717 4721
4717 9606
4718 4719
4718 4720
4718 4721
4718 4722
4719 4720
4719 4721
4719 4722
4719 4723
4719 8412
4720 4721
4720 4722
4720 4723
4720 4724
4721 4723
4721 4724
4721 4725
4722 4723
4722 4724
4722 4725
4722 4726
4723 4724
4723 4725
4723 4726
4723 4727
4723 8077
4724 4725
4724 4726
4724 4727
4724 4728
4725 4726
4725 4727
4725 4728
4725 4729
4726 4727
4726 4728
4726 4729
4726 4730
4727 4728
4727 4729
4727 4730
4727 4731
4728 4729
4728 4730
4728 4731
4728 4732
4729 4731
4729 4732
4729 4733
4729 6179
4729 8054
4730 4731
4730 4733
4730 4734
4730 4811
4731 4732
4731 4733
4731 4734
4731 4735
4732 4733
4732 4734
4732 4735
4732 4736
4733 4734
4733 4735
4733 4737
4734 4735
4734 4736
4734 4737
4734 4738
4735 4736
4735 4737
4735 4738
4735 4739
4735 7260
4736 4737
4736 4739
4736 4740
4736 8800
4737 4738
4737 4739
4737 4740
4737 4741
4738 4739
4738 4740
4738 4741
4738 4742
4739 4740
4739 4742
4739 4743
4739 8497
4740 4741
4740 4742
4740 4743
4740 4744
4741 4742
4741 4744
4741 4745
4741 5635
4741 5317
4741 8129
4742 4743
4742 4744
4742 4746
4742 5569
4743 4744
4743 4745
4743 4746
4743 4747
4744 4745
4744 4746
4744 4747
4744 4860
4744 4953
4745 4746
4745 4747
4745 4748
4745 4749
4745 8762
4746 4747
4746 4748
4746 4750
4746 7601
4746 8617
4747 4748
4747 4749
4747 4750
4747 6908
4748 4749
4748 4750
4748 4751
4748 4752
4749 4750
4749 4751
4749 4752
4750 4751
4750 4752
4750 4753
4750 4754
4751 4752
4751 4753
4751 4755
4752 4753
4752 4754
4752 4755
4752 4756
4753 4754
4753 4755
4753 4756
4753 4757
4754 4755
4754 4756
4754 4757
4754 4758
4755 4756
4755 4757
4755 4758
4755 4759
4756 4757
4756 4758
4756 6918
4756 7965
4756 8319
4757 4758
4757 4759
4757 4760
4757 4761
4757 4894
4758 4759
4758 4760
4758 4761
4758 4762
4759 4760
4759 4761
4759 4762
4759 4763
4760 4761
4760 4762
4760 4763
4760 4764
4761 4762
4761 4763
4761 4764
4761 4765
4762 4764
4762 4765
4762 4766
4762 7934
4763 4764
4763 4765
4763 4766
4763 4767
4764 4765
4764 4766
4764 4767
4764 9942
4765 4767
4765 4768
4765 8386
4765 8615
4766 4767
4766 4768
4766 4769
4766 4770
4766 9189
4767 4768
4767 4769
4767 4770
4767 4771
4768 4769
4768 4770
4768 4771
4768 4772
4768 5605
4769 4771
4769 4772
4769 4773
4770 4771
4770 4772
4770 4773
4770 4774
4770 8549
4771 4772
4771 4773
4771 4774
4771 4775
4772 4774
4772 4775
4772 4776
4772 5387
4773 4774
4773 4775
4773 4776
4773 6125
4773 5956
4774 4775
4774 4776
4774 4777
4774 4778
4775 4776
4775 4777
4775 4778
4775 4779
4776 4777
4776 4778
4776 4779
4776 4780
4776 8578
4777 4778
4777 4779
4777 4780
4777 7941
4777 5325
4778 4779
4778 4781
4778 4782
4779 4780
4779 4781
4779 4782
4779 4783
4780 4781
4780 4782
4780 4783
4780 4784
4781 4782
4781 4783
4781 4784
4781 4785
4782 4783
4782 4784
4782 4785
4782 4786
4783 4784
4783 4785
4783 4786
4783 4787
4784 4785
4784 4786
4784 4788
4784 8622
4785 4786
4785 4787
4785 4788
4785 4789
4786 4788
4786 4789
4786 4790
4786 5956
4787 4788
4787 4790
4787 4791
4788 4789
4788 4790
4788 4791
4788 4792
4788 6125
4789 4790
4789 4791
4789 4792
4789 4793
4790 4791
4790 4792
4790 4793
4790 4794
4791 4792
4791 4793
4791 4794
4791 4795
4792 4793
4792 4794
4792 4795
4792 4796
4792 7332
4793 4794
4793 4795
4793 4796
4793 4797
4793 4799
4793 6082
4794 4795
4794 4796
4794 4797
4794 4798
4795 4796
4795 4797
4795 4798
4795 4799
4796 4797
4796 4798
4796 4799
4796 8321
4796 6979
4797 4799
4797 4800
4797 4801
4797 7134
4798 4799
4798 4800
4798 4802
4798 7918
4799 4801
4799 4802
4799 4803
4800 4801
4800 4802
4800 4803
4800 4804
4801 4803
4801 4804
4801 6176
4802 4803
4802 4804
4802 4805
4802 6529
4803 4804
4803 4805
4803 4806
4803 4807
4804 4805
4804 4807
4804 4808
4805 4806
4805 4807
4805 4808
4805 4809
4806 4807
4806 4808
4806 4809
4806 4810
4807 4808
4807 4809
4807 4810
4807 4811
4808 4809
4808 4810
4808 4811
4808 4812
4808 5875
4809 4810
4809 4811
4809 4812
4809 4813
4810 4811
4810 4812
4810 4813
4810 4814
4810 8250
4810 7206
4811 4812
4811 4813
4811 4814
4811 4815
4812 4813
4812 4814
4812 4815
4812 4816
4813 4814
4813 4815
4813 4816
4813 4817
4814 4815
4814 4816
4814 4817
4814 4818
4814 9504
4815 4816
4815 4817
4815 4818
4815 4819
4815 8743
4816 4817
4816 4818
4816 4819
4816 4820
4817 4818
4817 4820
4817 4821
4817 5407
4818 4819
4818 4820
4818 4822
4819 4820
4819 4823
4820 4821
4820 4822
4820 4823
4820 4824
4821 4822
4821 4823
4821 4825
4821 7433
4822 4823
4822 4824
4822 4825
4822 4826
4823 4824
4823 4825
4823 4827
4824 4825
4824 4826
4824 4827
4824 4828
4825 4826
4825 4827
4825 4828
4825 4829
4825 6081
4825 9748
4826 4827
4826 4828
4826 4829
4826 4830
4827 4828
4827 4829
4827 4830
4827 9257
4828 4829
4828 4830
4828 4831
4828 4832
4829 4830
4829 4831
4829 4832
4829 4833
4830 4831
4830 4832
4830 4833
4830 4834
4831 4832
4831 4833
4831 4834
4831 4835
4832 4833
4832 4834
4832 4835
4832 4836
4833 4835
4833 4836
4833 4837
4833 5201
4833 5647
4834 4835
4834 4836
4834 4837
4834 6789
4835 4836
4835 4837
4835 4838
4835 4839
4835 5117
4836 4837
4836 4838
4836 4839
4836 4840
4837 4838
4837 4839
4837 4840
4837 4841
4837 5562
4838 4839
4838 4840
4838 4841
4838 4842
4839 4840
4839 4841
4839 4842
4839 4843
4839 9135
4840 4841
4840 4842
4840 4843
4840 4844
4841 4842
4841 4843
4841 4844
4841 4845
4841 7000
4842 4844
4842 4846
4842 5627
4842 6517
4843 4844
4843 4845
4843 4846
4843 4847
4844 4845
4844 4846
4844 4847
4844 4848
4845 4847
4845 4848
4845 4849
4845 5914
4845 6251
4845 8471
4846 4847
4846 4848
4846 4850
4846 9160
4847 4848
4847 4849
4847 4850
4847 4851
4848 4849
4848 4850
4848 4851
4848 4852
4848 8870
4849 4850
4849 4851
4849 4852
4849 4853
4850 4851
4850 4852
4850 4853
4850 4854
4851 4853
4851 4854
4851 4855
4851 6065
4851 7175
4852 4853
4852 4854
4852 4855
4852 4856
4852 7065
4853 4855
4853 4856
4853 4857
4853 7554
4854 4855
4854 4856
4854 4857
4854 4858
4855 4856
4855 4857
4855 4858
4855 4859
4856 4857
4856 4858
4856 4859
4856 4860
4857 4858
4857 4859
4857 4860
4857 4861
4857 9535
4858 4859
4858 4860
4858 4861
4858 4862
4859 4860
4859 4861
4859 4862
4859 4863
4860 4862
4860 4863
4860 4864
4860 6968
4861 4862
4861 4863
4861 4865
4862 4863
4862 4864
4862 4865
4862 4866
4862 7300
4863 4864
4863 4865
4863 4866
4863 4867
4864 4865
4864 4866
4864 4867
4864 5014
4864 8811
4865 4866
4865 4868
4865 4869
4865 9801
4866 4867
4866 4868
4866 4869
4866 4870
4867 4868
4867 4869
4867 4870
4867 4871
4868 4869
4868 4870
4868 4871
4868 4872
4869 4871
4869 4872
4869 4873
4869 6437
4869 5626
4870 4871
4870 4872
4870 4873
4870 4874
4871 4872
4871 4873
4871 4874
4871 4875
4872 4874
4872 4875
4872 4876
4872 7291
4873 4874
4873 4875
4873 4876
4873 4877
4874 4875
4874 4876
4874 4877
4874 4878
4874 8586
4875 4876
4875 4877
4875 4878
4875 4879
4876 4877
4876 4879
4876 4880
4877 4878
4877 4879
4877 4880
4877 4881
4877 5802
4878 4879
4878 4880
4878 4882
4878 9784
4879 4880
4879 4882
4879 4883
4879 6741
4879 7012
4880 4881
4880 4882
4880 4883
4880 4884
4881 4882
4881 4883
4881 4884
4881 4885
4882 4883
4882 4884
4882 4885
4883 4884
4883 4885
4883 4886
4883 4887
4883 5403
4883 6922
4884 4885
4884 4886
4884 4887
4884 4888
4885 4886
4885 4887
4885 4888
4885 4889
4886 4887
4886 4888
4886 4890
4887 4888
4887 4889
4887 4890
4887 4891
4888 4889
4888 4890
4888 4891
4888 4892
4889 4890
4889 4891
4889 4892
4889 4893
4890 4891
4890 4892
4890 4893
4890 4894
4891 4892
4891 4893
4891 4895
4891 8214
4892 4893
4892 4894
4892 4895
4892 4896
4893 4894
4893 4895
4893 4896
4893 8134
4894 4895
4894 4896
4894 4897
4895 4896
4895 4897
4895 4898
4895 4899
4896 4897
4896 4900
4896 5135
4897 4898
4897 4899
4897 4900
4897 4901
4898 4899
4898 4900
4898 4901
4898 4902
4899 4900
4899 4901
4899 4902
4899 4903
4900 4901
4900 4902
4900 4903
4900 4904
4901 4902
4901 4903
4901 4904
4902 4903
4902 4904
4902 4905
4902 4906
4903 4904
4903 4905
4903 4906
4903 4907
4903 7327
4904 4905
4904 4906
4904 4907
4904 4908
4905 4906
4905 4908
4905 4909
4905 7233
4906 4907
4906 4908
4906 4909
4906 4910
4907 4908
4907 4909
4907 4910
4907 4911
4907 8879
4908 4909
4908 4910
4908 4911
4908 4912
4909 4910
4909 4911
4909 4913
4909 7457
4910 4911
4910 4912
4910 4913
4910 4914
4911 4912
4911 4913
4911 4914
4911 4915
4912 4913
4912 4914
4912 4915
4912 4916
4913 4914
4913 4915
4913 4916
4913 4917
4914 4915
4914 4916
4914 4917
4914 4918
4915 4916
4915 4917
4915 4918
4915 4919
4916 4917
4916 4918
4916 4919
4916 4920
4917 4918
4917 4919
4917 4920
4917 4921
4918 4919
4918 4920
4918 4921
4918 4922
4919 4920
4919 4921
4919 4922
4919 4923
4920 4921
4920 4922
4920 4923
4920 4924
4921 4922
4921 4923
4921 4925
4921 8721
4922 4923
4922 4924
4922 4925
4922 4926
4922 8132
4923 4924
4923 4925
4923 4926
4923 4927
4924 4927
4924 4928
4924 8841
4924 9953
4925 4926
4925 4927
4925 4928
4925 4929
4926 4927
4926 4928
4926 4929
4926 4930
4927 4928
4927 4929
4927 4930
4927 4931
4928 4929
4928 4930
4928 4931
4928 4932
4929 4930
4929 4931
4929 4932
4929 4933
4930 4931
4930 4933
4930 4934
4931 4932
4931 4933
4931 4934
4931 4935
4932 4933
4932 4934
4932 4935
4932 4936
4933 4934
4933 4935
4933 4937
4933 9703
4934 4935
4934 4936
4934 4937
4934 4938
4935 4936
4935 4937
4935 4939
4936 4937
4936 4938
4936 4939
4936 4940
4937 4938
4937 4939
4937 4940
4937 4941
4938 4939
4938 4940
4938 4941
4938 4942
4939 4940
4939 4942
4939 4943
4939 7637
4940 4941
4940 4942
4940 4943
4940 4944
4941 4942
4941 4943
4941 4944
4941 4945
4942 4943
4942 4944
4942 4945
4942 4946
4943 4944
4943 4945
4943 4946
4944 4945
4944 4947
4944 4948
4944 8959
4945 4946
4945 4947
4945 4948
4946 4947
4946 4948
4946 4949
4946 4950
4947 4948
4947 4949
4947 4950
4947 7759
4947 9495
4948 4949
4948 4950
4948 4951
4949 4950
4949 4951
4949 4952
4949 4953
4950 4951
4950 4952
4950 4953
4950 4954
4951 4952
4951 4953
4951 4954
4951 4955
4952 4953
4952 4954
4952 4955
4952 4956
4952 9149
4953 4954
4953 4955
4953 4956
4953 4957
4954 4955
4954 4956
4954 4957
4954 4958
4955 4956
4955 4958
4955 4959
4955 5330
4955 5846
4955 8805
4956 4957
4956 4958
4956 4959
4956 4960
4957 4958
4957 4959
4957 4960
4957 4961
4958 4959
4958 4961
4958 4962
4959 4960
4959 4961
4959 4962
4959 4963
4960 4961
4960 4962
4960 4963
4960 4964
4961 4962
4961 4963
4961 4964
4961 4965
4961 9182
4961 8243
4962 4963
4962 4964
4962 4965
4963 4964
4963 4965
4963 4966
4963 4967
4964 4965
4964 4966
4964 4967
4964 4968
4965 4966
4965 4967
4965 4968
4965 4969
4966 4967
4966 4968
4966 4969
4966 4970
4967 4968
4967 4969
4967 4970
4967 4971
4967 8158
4968 4970
4968 4971
4968 4972
4968 9068
4969 4970
4969 4971
4969 4972
4969 4973
4970 4972
4970 4973
4970 4974
4970 5428
4971 4972
4971 4973
4971 4974
4971 4975
4972 4973
4972 4974
4972 4975
4972 4976
4973 4975
4973 4976
4973 4977
4973 6654
4974 4975
4974 4976
4974 4977
4974 4978
4975 4977
4975 4978
4975 4979
4975 6633
4976 4977
4976 4979
4976 4980
4976 5066
4977 4978
4977 4979
4977 4980
4977 4981
4978 4979
4978 4980
4978 4981
4978 4982
4979 4980
4979 4981
4979 4982
4979 4983
4980 4981
4980 4982
4980 4983
4980 4984
4980 6946
4981 4982
4981 4983
4981 4984
4981 4985
4981 5627
4982 4983
4982 4984
4982 4985
4982 4986
4983 4984
4983 4985
4983 4986
4983 4987
4984 4985
4984 4986
4984 4987
4984 4988
4985 4986
4985 4987
4985 4988
4985 4989
4986 4987
4986 4988
4986 4989
4986 4990
4986 9891
4987 4989
4987 4990
4987 4991
4987 8802
4987 6820
4988 4989
4988 4990
4988 4991
4988 4992
4989 4990
4989 4991
4989 4992
4989 4993
4990 4991
4990 4993
4990 4994
4990 6617
4991 4992
4991 4994
4991 4995
4991 5141
4992 4993
4992 4994
4992 4995
4992 4996
4993 4994
4993 4995
4993 4996
4993 4997
4993 9590
4994 4995
4994 4996
4994 4997
4994 4998
4995 4996
4995 4997
4995 4998
4995 4999
4996 4997
4996 4998
4996 4999
4996 5000
4997 4998
4997 4999
4997 5000
4997 5001
4997 7346
4998 4999
4998 5000
4998 5001
4998 5002
4999 5000
4999 5001
4999 5002
4999 5003
5000 5001
5000 5002
5000 5003
5000 5004
5000 7157
5001 5002
5001 5003
5001 5004
5001 5005
5001 9472
5002 5003
5002 5004
5002 5005
5002 5006
5003 5004
5003 5005
5003 5006
5003 5007
5004 5005
5004 5006
5004 5007
5004 5008
5005 5006
5005 5007
5005 5008
5005 5009
5005 6705
5006 5007
5006 5008
5006 5009
5006 5010
5007 5008
5007 5009
5007 5010
5007 5011
5007 8021
5008 5009
5008 5010
5008 5011
5008 5012
5009 5012
5009 5013
5010 5012
5010 5014
5010 9034
5011 5012
5011 5013
5011 5014
5011 5015
5012 5013
5012 5015
5012 5016
5012 6755
5013 5014
5013 5015
5013 5016
5013 5017
5014 5015
5014 5016
5014 5017
5014 5018
5015 5016
5015 5017
5015 5018
5015 5019
5016 5017
5016 5018
5016 5019
5016 5602
5017 5018
5017 5019
5017 5020
5017 5021
5018 5019
5018 5020
5018 5021
5018 5022
5018 6385
5019 5020
5019 5021
5019 5022
5019 5023
5020 5021
5020 5022
5020 5023
5020 5024
5020 7294
5021 5022
5021 5023
5021 5024
5021 5025
5022 5024
5022 5025
5022 5026
5023 5024
5023 5025
5023 5026
5023 5027
5024 5025
5024 5026
5024 5027
5025 5026
5025 5027
5025 5028
5025 5029
5026 5027
5026 5028
5026 5029
5026 5030
5027 5028
5027 5029
5027 5031
5028 5029
5028 5031
5028 5032
5028 8937
5029 5030
5029 5031
5029 5032
5029 5033
5030 5031
5030 5032
5030 5033
5030 5034
5031 5032
5031 5033
5031 5034
5032 5033
5032 5034
5032 5036
5032 8223
5032 6932
5033 5034
5033 5035
5033 5037
5033 6786
5034 5035
5034 5036
5034 5038
5034 5391
5035 5036
5035 5037
5035 5038
5036 5037
5036 5038
5036 5039
5036 5040
5037 5038
5037 5039
5037 5040
5037 5352
5038 5039
5038 5040
5038 5041
5038 5042
5039 5040
5039 5041
5039 5042
5039 5043
5039 7998
5040 5041
5040 5042
5040 5043
5041 5042
5041 5043
5041 5044
5042 5043
5042 5044
5042 5045
5042 5046
5043 5044
5043 5045
5043 5046
5043 5047
5043 7216
5044 5045
5044 5046
5044 5047
5044 5048
5045 5046
5045 5047
5045 5048
5045 5049
5046 5047
5046 5048
5046 5049
5046 5050
5046 8284
5047 5048
5047 5049
5047 5050
5047 5051
5048 5049
5048 5050
5048 5051
5048 5052
5049 5050
5049 5051
5049 5052
5049 5053
5050 5051
5050 5052
5050 5053
5050 5054
5051 5052
5051 5054
5051 5055
5051 5694
5052 5053
5052 5054
5052 5056
5053 5054
5053 5055
5053 5056
5053 5057
5054 5055
5054 5056
5054 5057
5054 5058
5055 5056
5055 5057
5055 5058
5055 5059
5056 5057
5056 5060
5056 8878
5057 5058
5057 5059
5057 5060
5057 5061
5058 5059
5058 5060
5058 5061
5058 5062
5059 5060
5059 5061
5059 5062
5059 5063
5060 5061
5060 5063
5060 5064
5061 5062
5061 5063
5061 5064
5061 8579
5061 5502
5062 5063
5062 5064
5062 5065
5062 5066
5062 6706
5063 5065
5063 5066
5063 5067
5063 7610
5064 5065
5064 5066
5064 5068
5065 5066
5065 5067
5065 5068
5065 5069
5066 5068
5066 5069
5066 5070
5066 5793
5067 5068
5067 5069
5067 5070
5067 5071
5068 5069
5068 5070
5068 5071
5068 5072
5069 5070
5069 5071
5069 5072
5069 5073
5069 9495
5070 5071
5070 5072
5070 5073
5071 5072
5071 5073
5071 5074
5071 5075
5072 5075
5072 5076
5072 9075
5073 5074
5073 5075
5073 5076
5073 5077
5074 5075
5074 5076
5074 5077
5074 5078
5074 7643
5075 5076
5075 5077
5075 5078
5075 5079
5076 5077
5076 5078
5076 5079
5076 5852
5077 5078
5077 5080
5077 5081
5077 6034
5078 5079
5078 5080
5078 5081
5078 5082
5079 5080
5079 5081
5079 5083
5079 8203
5080 5081
5080 5082
5080 5083
5080 5084
5081 5082
5081 5083
5081 5084
5081 5085
5082 5083
5082 5084
5082 5085
5082 5086
5083 5084
5083 5085
5083 5086
5083 5087
5084 5085
5084 5086
5084 5087
5084 5088
5085 5086
5085 5087
5085 5088
5085 5089
5086 5087
5086 5088
5086 5089
5086 5090
5087 5088
5087 5089
5087 5090
5087 5971
5088 5089
5088 5090
5088 5091
5088 5092
5089 5090
5089 5091
5089 5092
5089 5093
5090 5091
5090 5093
5090 5094
5091 5092
5091 5093
5091 5094
5091 5095
5092 5093
5092 5094
5092 5095
5092 5096
5093 5094
5093 5095
5093 5096
5093 5097
5093 7915
5093 7418
5093 8901
5094 5095
5094 5096
5094 5097
5094 5098
5095 5096
5095 5097
5095 5098
5095 7500
5096 5097
5096 5098
5096 5100
5097 5098
5097 5099
5097 5100
5097 5101
5098 5099
5098 5100
5098 5101
5098 5102
5099 5100
5099 5101
5099 5102
5099 5103
5100 5102
5100 5103
5100 8368
5100 5389
5100 5190
5101 5103
5101 5104
5101 5105
5102 5103
5102 5104
5102 5105
5102 5106
5103 5104
5103 5105
5103 5106
5103 5107
5104 5105
5104 5106
5104 5107
5104 5108
5105 5106
5105 5107
5105 5108
5105 5109
5106 5107
5106 5109
5106 5110
5106 7707
5107 5108
5107 5109
5107 5110
5107 5111
5108 5109
5108 5111
5108 5112
5108 8590
5108 7243
5109 5110
5109 5111
5109 5112
5109 5113
5110 5112
5110 5113
5110 5114
5111 5112
5111 5113
5111 5114
5111 5115
5112 5113
5112 5114
5112 5115
5112 5116
5113 5114
5113 5115
5113 5116
5113 5117
5114 5115
5114 5116
5114 5117
5114 5118
5114 6720
5115 5116
5115 5117
5115 5118
5115 5119
5115 8009
5116 5117
5116 5118
5116 5119
5116 5120
5116 6608
5116 9967
5117 5118
5117 5119
5117 5121
5118 5119
5118 5120
5118 5121
5118 5122
5119 5120
5119 5121
5119 5122
5119 5123
5120 5121
5120 5122
5120 5123
5120 5124
5120 9360
5121 5122
5121 5123
5121 5124
5121 5125
5121 8190
5122 5123
5122 5124
5122 5125
5122 5126
5123 5124
5123 5125
5123 5126
5123 5127
5123 9976
5124 5125
5124 5126
5124 5127
5124 5128
5124 8263
5125 5126
5125 5127
5125 5128
5125 5129
5126 5127
5126 5128
5126 5129
5127 5128
5127 5129
5127 5130
5127 5131
5128 5129
5128 5131
5128 5132
5128 6300
5129 5130
5129 5131
5129 5132
5129 5133
5130 5131
5130 5132
5130 5133
5130 5134
5130 6297
5131 5132
5131 5133
5131 5134
5131 5135
5132 5133
5132 5134
5132 5135
5132 5136
5133 5134
5133 5135
5133 5136
5133 5137
5134 5135
5134 5136
5134 5138
5135 5136
5135 5137
5135 5138
5135 5139
5136 5137
5136 5138
5136 5139
5136 5140
5137 5138
5137 5139
5137 5140
5137 5141
5138 5139
5138 5140
5138 5141
5138 5142
5139 5140
5139 5141
5139 5142
5139 5143
5140 5141
5140 5143
5140 5144
5140 7842
5141 5142
5141 5143
5141 5144
5141 5145
5142 5143
5142 5144
5142 5146
5142 7001
5143 5144
5143 5146
5143 5147
5144 5145
5144 5146
5144 5147
5144 5148
5145 5146
5145 5147
5145 5149
5145 9859
5145 8628
5146 5147
5146 5148
5146 5149
5146 5150
5147 5150
5147 5151
5147 9329
5147 9578
5148 5149
5148 5150
5148 5151
5148 5152
5149 5150
5149 5151
5149 5152
5150 5151
5150 5152
5150 5153
5150 5154
5151 5152
5151 5153
5151 5154
5151 5155
5152 5153
5152 5154
5152 5155
5152 5156
5153 5154
5153 5155
5153 5156
5153 5157
5154 5155
5154 5156
5154 5157
5154 5158
5154 6815
5155 5156
5155 5157
5155 5158
5155 5159
5156 5157
5156 5158
5156 5159
5156 5160
5157 5158
5157 5159
5157 5160
5157 5161
5158 5160
5158 5161
5158 5162
5158 8780
5159 5160
5159 5161
5159 5162
5159 5163
5160 5161
5160 5162
5160 5163
5161 5163
5161 5164
5161 5165
5162 5163
5162 5164
5162 5165
5162 5166
5163 5164
5163 5165
5163 5166
5163 5167
5164 5165
5164 5166
5164 5167
5164 5168
5165 5166
5165 5167
5165 5168
5165 5169
5166 5167
5166 5168
5166 5169
5166 5170
5166 7991
5167 5168
5167 5169
5167 5170
5167 5171
5167 9190
5168 5169
5168 5170
5168 5172
5169 5170
5169 5172
5169 5173
5170 5171
5170 5172
5170 5173
5170 5174
5171 5173
5171 5174
5171 5175
5171 8519
5171 9085
5172 5173
5172 5174
5172 5175
5172 5176
5173 5174
5173 5175
5173 5176
5173 5177
5174 5175
5174 5176
5174 5177
5174 5178
5175 5176
5175 5177
5175 5178
5175 5179
5176 5177
5176 5178
5176 5179
5176 5180
5177 5178
5177 5179
5177 5180
5177 5181
5178 5179
5178 5180
5178 5181
5178 5182
5179 5180
5179 5181
5179 5182
5179 5183
5180 5181
5180 5182
5180 5183
5180 5184
5181 5182
5181 5183
5181 5184
5181 5185
5182 5183
5182 5184
5182 5185
5182 5186
5182 7423
5183 5184
5183 5186
5183 5187
5183 8426
5183 6503
5184 5185
5184 5186
5184 5187
5184 5188
5185 5186
5185 5187
5185 5188
5185 5189
5186 5187
5186 5188
5186 5189
5186 5190
5187 5188
5187 5189
5187 5190
5187 5191
5188 5189
5188 5190
5188 5191
5188 5192
5189 5190
5189 5191
5189 5192
5189 5193
5189 6712
5190 5191
5190 5192
5190 5193
5190 5194
5191 5192
5191 5193
5191 5194
5191 5195
5192 5193
5192 5194
5192 5195
5192 7842
5193 5194
5193 5196
5193 5197
5194 5195
5194 5196
5194 5197
5194 5198
5195 5196
5195 5198
5195 5199
5195 7989
5196 5197
5196 5198
5196 5199
5196 5200
5196 5444
5197 5198
5197 5199
5197 5200
5197 5201
5198 5201
5198 5202
5198 8398
5198 8872
5199 5200
5199 5201
5199 5202
5199 5203
5200 5201
5200 5202
5200 5203
5200 5204
5201 5202
5201 5203
5201 5204
5201 5205
5202 5204
5202 5205
5202 5206
5203 5205
5203 5206
5203 5207
5204 5205
5204 5206
5204 5207
5204 5208
5205 5206
5205 5207
5205 5208
5205 5209
5206 5207
5206 5208
5206 5209
5206 5210
5207 5208
5207 5209
5207 5211
5207 6523
5208 5209
5208 5211
5208 5212
5208 7973
5208 9996
5209 5210
5209 5211
5209 5212
5209 5213
5210 5211
5210 5212
5210 5213
5210 5214
5210 9602
5211 5212
5211 5213
5211 5214
5211 5215
5212 5213
5212 5214
5212 5215
5212 5216
5213 5214
5213 5215
5213 5216
5213 5217
5214 5215
5214 5217
5214 5218
5214 6058
5215 5216
5215 5217
5215 5218
5215 5219
5216 5218
5216 5219
5216 5220
5216 6747
5217 5218
5217 5219
5217 5220
5217 5221
5218 5219
5218 5220
5218 5221
5218 5222
5219 5220
5219 5221
5219 5222
5219 5223
5220 5221
5220 5222
5220 5223
5220 5224
5221 5223
5221 5224
5221 7893
5222 5223
5222 5224
5222 5225
5222 8152
5223 5224
5223 5225
5223 5226
5223 5227
5224 5225
5224 5226
5224 5227
5224 5228
5225 5226
5225 5227
5225 5228
5225 5229
5226 5227
5226 5228
5226 5229
5226 5230
5227 5228
5227 5229
5227 5230
5227 5231
5227 6210
5228 5229
5228 5230
5228 5231
5228 5232
5229 5230
5229 5232
5230 5231
5230 5232
5230 5233
5230 5234
5231 5232
5231 5233
5231 5234
5231 5235
5232 5233
5232 5234
5232 5236
5233 5235
5233 5236
5233 5237
5234 5235
5234 5236
5234 5237
5234 5238
5234 9805
5235 5236
5235 5237
5235 5238
5235 5239
5235 8569
5236 5237
5236 5238
5236 5239
5236 5240
5237 5238
5237 5239
5237 5240
5237 5241
5238 5239
5238 5240
5238 5241
5238 5242
5239 5240
5239 5241
5239 5242
5239 5243
5240 5241
5240 5242
5240 5243
5240 5244
5241 5242
5241 5243
5241 5244
5241 5245
5242 5243
5242 5244
5242 5245
5242 5246
5243 5245
5243 5246
5243 5247
5244 5245
5244 5246
5244 5247
5244 5248
5244 5940
5245 5246
5245 5247
5245 5248
5245 5249
5246 5247
5246 5248
5246 5249
5247 5248
5247 5250
5247 5251
5248 5249
5248 5251
5248 5252
5248 9813
5249 5250
5249 5251
5249 5252
5249 5253
5250 5251
5250 5252
5250 5254
5250 8885
5251 5252
5251 5254
5251 5255
5251 8398
5252 5253
5252 5254
5252 5255
5252 5256
5253 5254
5253 5255
5253 5256
5253 5257
5254 5255
5254 5256
5254 5257
5254 5258
5255 5256
5255 5258
5255 5259
5255 9881
5255 5870
5256 5257
5256 5258
5256 5259
5256 5260
5257 5258
5257 5259
5257 5260
5257 5261
5258 5259
5258 5260
5258 5261
5258 5262
5259 5260
5259 5261
5259 5263
5260 5261
5260 5262
5260 5264
5261 5262
5261 5263
5261 5264
5261 5265
5262 5263
5262 5264
5262 5265
5263 5264
5263 5265
5263 5266
5263 5267
5264 5265
5264 5266
5264 5267
5264 5268
5265 5266
5265 5267
5265 5268
5265 5269
5266 5267
5266 5268
5266 5270
5266 9615
5267 5268
5267 5269
5267 5270
5267 5271
5267 7304
5268 5269
5268 5270
5268 5271
5268 5272
5269 5270
5269 5271
5269 5272
5269 5273
5270 5271
5270 5272
5270 5274
5270 5652
5271 5272
5271 5273
5271 5274
5271 5275
5272 5273
5272 5274
5272 5275
5272 5276
5272 7452
5273 5274
5273 5275
5273 5276
5273 5277
5274 5275
5274 5276
5274 5277
5274 5278
5274 6085
5275 5276
5275 5278
5275 5279
5275 8853
5276 5277
5276 5278
5276 5279
5276 5280
5277 5279
5277 5280
5277 5281
5277 9076
5278 5279
5278 5280
5278 5281
5278 5282
5279 5280
5279 5281
5279 5282
5279 5283
5279 9900
5280 5281
5280 5282
5280 5283
5280 5284
5281 5282
5281 5283
5281 5284
5281 5285
5281 8819
5282 5283
5282 5284
5282 5285
5282 5286
5282 6906
5283 5284
5283 5285
5283 5286
5283 8438
5284 5285
5284 5288
5284 6720
5285 5286
5285 5287
5285 5288
5285 5289
5286 5287
5286 5288
5286 5289
5286 5290
5287 5288
5287 5289
5287 5290
5287 5291
5288 5289
5288 5290
5288 5291
5288 5292
5289 5290
5289 5291
5289 5292
5289 5293
5290 5291
5290 5292
5290 5293
5290 5294
5291 5292
5291 5293
5291 5294
5291 5295
5292 5293
5292 5294
5292 5295
5292 5296
5293 5294
5293 5295
5293 5296
5293 5297
5294 5295
5294 5296
5294 5297
5294 5298
5295 5296
5295 5297
5295 5298
5295 5299
5296 5297
5296 5298
5296 5300
5297 5298
5297 5299
5297 5300
5297 5301
5298 5299
5298 5301
5298 5302
5299 5300
5299 5301
5299 5302
5299 5303
5300 5301
5300 5302
5300 5303
5300 5304
5301 5302
5301 5303
5301 5304
5301 5305
5302 5303
5302 5305
5302 5306
5303 5304
5303 5305
5303 5306
5303 5307
5304 5306
5304 5307
5304 5308
5304 8907
5305 5306
5305 5307
5305 5308
5305 5309
5306 5307
5306 5309
5306 5310
5306 6724
5307 5308
5307 5309
5307 5310
5307 5311
5307 6862
5308 5309
5308 5310
5308 5311
5308 5312
5309 5310
5309 5311
5309 5312
5309 5313
5310 5311
5310 5312
5310 5313
5310 5314
5311 5313
5311 5315
5311 9419
5311 9589
5312 5313
5312 5314
5312 5315
5312 5316
5313 5314
5313 5315
5313 5316
5313 5317
5314 5315
5314 5316
5314 5317
5314 5318
5315 5316
5315 5317
5315 5318
5315 5319
5316 5317
5316 5318
5316 5319
5317 5318
5317 5320
5317 5321
5318 5319
5318 5320
5318 5321
5318 5322
5319 5320
5319 5322
5320 5321
5320 5323
5320 5324
5320 8125
5321 5322
5321 5323
5321 5324
5321 5325
5322 5323
5322 5324
5322 5325
5323 5324
5323 5325
5323 5326
5323 5327
5323 8216
5324 5325
5324 5326
5324 5327
5324 5328
5325 5326
5325 5327
5325 5328
5325 5329
5326 5327
5326 5328
5326 5329
5326 5330
5327 5328
5327 5329
5327 5330
5327 5331
5328 5329
5328 5330
5328 5331
5328 5332
5329 5331
5329 5332
5329 5333
5330 5331
5330 5332
5330 5333
5330 5334
5330 5863
5331 5332
5331 5333
5331 5335
5332 5333
5332 5334
5332 5335
5332 5336
5333 5334
5333 5335
5333 5336
5333 5337
5334 5335
5334 5336
5334 5337
5334 5338
5335 5336
5335 5338
5335 5339
5336 5337
5336 5338
5336 5339
5336 5340
5337 5338
5337 5340
5338 5340
5338 5341
5338 5342
5338 6334
5339 5340
5339 5341
5339 5342
5339 6438
5340 5341
5340 5342
5340 5343
5340 5344
5341 5342
5341 5343
5341 5344
5341 5345
5342 5343
5342 5344
5342 5345
5342 5792
5343 5344
5343 5345
5343 5346
5343 5347
5344 5345
5344 5346
5344 5348
5344 5430
5345 5346
5345 5347
5345 8089
5345 8364
5346 5347
5346 5348
5346 5349
5346 5350
5347 5348
5347 5349
5347 5350
5347 5351
5347 9373
5348 5349
5348 5350
5348 5351
5348 5352
5349 5350
5349 5351
5349 5352
5350 5351
5350 5352
5350 5353
5350 5354
5351 5352
5351 5353
5351 5354
5351 5355
5352 5353
5352 5354
5352 5355
5352 5356
5353 5354
5353 5355
5353 5356
5353 5357
5354 5355
5354 5356
5354 5357
5354 5358
5355 5357
5355 5358
5355 5359
5355 9479
5356 5357
5356 5358
5356 5359
5356 5360
5357 5359
5357 5360
5357 5361
5358 5359
5358 5360
5358 5361
5358 5362
5359 5360
5359 5361
5359 5362
5359 5363
5360 5361
5360 5362
5360 5363
5360 5364
5361 5362
5361 5363
5361 5364
5361 5365
5362 5363
5362 5364
5362 5365
5362 5366
5363 5364
5363 5365
5363 5366
5363 5367
5364 5365
5364 5366
5364 5367
5364 5368
5365 5366
5365 5367
5365 5368
5365 5369
5366 5367
5366 5368
5366 5369
5366 5370
5367 5369
5367 5370
5367 5371
5368 5369
5368 5370
5368 5371
5368 5372
5369 5370
5369 5371
5369 5372
5369 5373
5369 7202
5370 5371
5370 5372
5370 5373
5370 5374
5371 5372
5371 5373
5371 5374
5371 5375
5372 5375
5372 5376
5372 9021
5372 8378
5373 5375
5373 5376
5373 5377
5374 5375
5374 5376
5374 5377
5374 5378
5375 5376
5375 5377
5375 5378
5375 5379
5376 5377
5376 5378
5376 5379
5376 5380
5377 5378
5377 5379
5377 5380
5377 5381
5378 5379
5378 5380
5378 5381
5378 5906
5379 5380
5379 5381
5379 5383
5379 6835
5380 5381
5380 5383
5380 5384
5380 8343
5381 5382
5381 5383
5381 5384
5381 5385
5382 5384
5382 5385
5382 5386
5383 5385
5383 5387
5383 8601
5384 5385
5384 5386
5384 5387
5384 5388
5385 5386
5385 5387
5385 5388
5385 5389
5386 5387
5386 5388
5386 5390
5387 5388
5387 5389
5387 5390
5387 5391
5388 5389
5388 5390
5388 5391
5388 9033
5389 5391
5389 5392
5389 5393
5390 5391
5390 5392
5390 5393
5390 5394
5391 5392
5391 5394
5391 5395
5391 6082
5391 7868
5392 5393
5392 5394
5392 5395
5392 5396
5393 5394
5393 5395
5393 5396
5393 5397
5394 5395
5394 5397
5394 5398
5395 5396
5395 5397
5395 5398
5395 5399
5396 5397
5396 5398
5396 5399
5396 5400
5397 5399
5397 5400
5397 5401
5397 7191
5398 5399
5398 5401
5398 5402
5398 7136
5399 5400
5399 5401
5399 5402
5399 5403
5400 5403
5400 5404
5400 7361
5401 5402
5401 5404
5401 5405
5401 6144
5402 5403
5402 5404
5402 5405
5402 5406
5403 5404
5403 5405
5403 5406
5404 5405
5404 5406
5404 5408
5405 5406
5405 5407
5405 5408
5405 5409
5406 5407
5406 5408
5406 5409
5406 5410
5407 5408
5407 5410
5407 5411
5408 5409
5408 5410
5408 5411
5408 5412
5409 5410
5409 5411
5409 5412
5409 5413
5409 6589
5410 5411
5410 5412
5410 5413
5410 5414
5410 9020
5411 5412
5411 5413
5411 5414
5411 5415
5412 5413
5412 5414
5412 5415
5412 5416
5413 5414
5413 5415
5413 5416
5413 5417
5414 5415
5414 5416
5414 5417
5414 5418
5414 7456
5415 5416
5415 5417
5415 5418
5415 5419
5416 5417
5416 5418
5416 5419
5416 5420
5417 5418
5417 5419
5417 5420
5417 8567
5418 5419
5418 5420
5418 5421
5418 5422
5419 5420
5419 5421
5419 5422
5419 5423
5419 6286
5420 5421
5420 5423
5420 5579
5420 6481
5421 5423
5421 5424
5421 5425
5422 5423
5422 5424
5422 5425
5422 5426
5423 5424
5423 5425
5423 5426
5423 5427
5423 5602
5424 5425
5424 5426
5424 5427
5424 5428
5425 5426
5425 5427
5425 5428
5425 5429
5425 9636
5425 9437
5426 5427
5426 5428
5426 5429
5426 5430
5427 5428
5427 5429
5427 5430
5428 5429
5428 5430
5428 5431
5428 5432
5429 5431
5429 5432
5429 5433
5429 7393
5430 5431
5430 5432
5430 5433
5430 5434
5431 5432
5431 5433
5431 5434
5431 5435
5432 5433
5432 5435
5432 5436
5433 5434
5433 5435
5433 5436
5433 5437
5433 6399
5434 5435
5434 5436
5434 5437
5434 5438
5435 5436
5435 5438
5435 5439
5435 7589
5436 5437
5436 5438
5436 5439
5436 5440
5436 7078
5437 5438
5437 5439
5437 5440
5437 5441
5438 5439
5438 5440
5438 5441
5438 5442
5438 9929
5439 5440
5439 5441
5439 5442
5439 5443
5440 5441
5440 5442
5440 5443
5440 5444
5441 5442
5441 5443
5441 5444
5442 5444
5442 5445
5442 5446
5442 8221
5443 5444
5443 5445
5443 5446
5443 5447
5444 5446
5444 5447
5444 5448
5445 5446
5445 5447
5445 5448
5445 5449
5446 5447
5446 5448
5446 5449
5446 5450
5447 5448
5447 5449
5447 5450
5447 5451
5448 5449
5448 5450
5448 5451
5448 5452
5449 5450
5449 5451
5449 5452
5449 5453
5449 5867
5449 7804
5450 5451
5450 5452
5450 5453
5450 5454
5451 5452
5451 5453
5451 5454
5451 5455
5452 5453
5452 5454
5452 5455
5452 5456
5453 5454
5453 5455
5453 5456
5453 5457
5454 5455
5454 5456
5454 5457
5454 5458
5455 5456
5455 5457
5455 5458
5455 5459
5456 5458
5456 5459
5456 5460
5457 5458
5457 5459
5457 5460
5457 8992
5458 5459
5458 5460
5458 5461
5458 6281
5459 5460
5459 5461
5459 5462
5459 5463
5460 5461
5460 5462
5460 5463
5460 5464
5460 7954
5461 5462
5461 5463
5461 5464
5461 5465
5461 8254
5462 5463
5462 5464
5462 5466
5463 5464
5463 5465
5463 5466
5463 5467
5464 5465
5464 5466
5464 5467
5464 5468
5465 5466
5465 5467
5465 5468
5465 5469
5466 5467
5466 5468
5466 5469
5466 5470
5466 9050
5467 5468
5467 5469
5467 5470
5467 5471
5468 5469
5468 5470
5468 5471
5468 5472
5469 5470
5469 5471
5469 5472
5469 5473
5470 5471
5470 5473
5470 5474
5470 6961
5470 7013
5471 5472
5471 5473
5471 5474
5471 5605
5472 5473
5472 5474
5472 5475
5472 5476
5473 5475
5473 5476
5473 5477
5474 5475
5474 5476
5474 5477
5474 5478
5475 5476
5475 5477
5475 5478
5475 5479
5476 5477
5476 5478
5476 5479
5476 5480
5477 5478
5477 5479
5477 5480
5477 5481
5478 5479
5478 5480
5478 5481
5478 5482
5479 5480
5479 5481
5479 5482
5479 5483
5480 5481
5480 5482
5480 5483
5480 5484
5481 5482
5481 5483
5481 5484
5481 5485
5482 5483
5482 5484
5482 5485
5482 5486
5483 5484
5483 5486
5483 5487
5483 6058
5484 5485
5484 5486
5484 5487
5484 5488
5485 5486
5485 5487
5485 5488
5485 5489
5486 5487
5486 5488
5486 5489
5486 5490
5487 5488
5487 5491
5487 8745
5487 9209
5488 5489
5488 5490
5488 5491
5488 5492
5488 6642
5488 6511
5489 5490
5489 5491
5489 5492
5489 5493
5490 5491
5490 5492
5490 5493
5490 5494
5491 5492
5491 5493
5492 5493
5492 5494
5492 5495
5492 5496
5492 9553
5493 5494
5493 5495
5493 5496
5494 5495
5494 5496
5494 5497
5494 5498
5495 5496
5495 5497
5495 5498
5495 8466
5495 8380
5495 6971
5496 5497
5496 5498
5496 5499
5496 5500
5497 5498
5497 5499
5497 5500
5497 5501
5497 6275
5498 5499
5498 5500
5498 5501
5498 5502
5498 8179
5499 5501
5499 5502
5499 5503
5500 5501
5500 5502
5500 5503
5500 5504
5501 5502
5501 5503
5501 5504
5501 5505
5502 5503
5502 5505
5502 5506
5502 8462
5503 5504
5503 5505
5503 5507
5503 6353
5504 5505
5504 5507
5504 5508
5504 6698
5505 5506
5505 5507
5505 5508
5505 5509
5505 8680
5506 5507
5506 5508
5506 5509
5506 5510
5507 5508
5507 5509
5507 5510
5507 5511
5508 5509
5508 5510
5508 5511
5509 5510
5509 5511
5509 5512
5509 5513
5510 5511
5510 5512
5510 5513
5510 5514
5511 5512
5511 5513
5511 5514
5511 5515
5511 9592
5512 5513
5512 5514
5512 5515
5512 5516
5513 5515
5513 5516
5513 5517
5513 8607
5514 5515
5514 5516
5514 5517
5515 5516
5515 5517
5515 5518
5515 5519
5516 5517
5516 5518
5516 5519
5516 5520
5517 5518
5517 5519
5517 5520
5517 5521
5518 5519
5518 5520
5518 5521
5518 5522
5518 8198
5519 5520
5519 5521
5519 5522
5519 5523
5520 5521
5520 5522
5520 5523
5520 5524
5521 5522
5521 5523
5521 5525
5522 5523
5522 5524
5522 5526
5522 7397
5523 5524
5523 5525
5523 5526
5524 5525
5524 5526
5524 5527
5524 5528
5525 5526
5525 5527
5525 5528
5525 5529
5525 7151
5526 5527
5526 5528
5526 5529
5526 5530
5526 8176
5526 9499
5527 5528
5527 5529
5527 5530
5527 5531
5528 5529
5528 5530
5528 5531
5528 5532
5529 5531
5529 5532
5529 5533
5529 9628
5530 5531
5530 5532
5530 5533
5530 5534
5531 5532
5531 5533
5531 5534
5531 5535
5532 5533
5532 5534
5532 5535
5532 7310
5532 8282
5533 5534
5533 5535
5533 5536
5533 5537
5534 5535
5534 5536
5534 5537
5534 5538
5535 5536
5535 5537
5535 5538
5535 5539
5535 6232
5536 5537
5536 5538
5536 5539
5536 5540
5537 5538
5537 5540
5537 5541
5537 7263
5537 6328
5538 5540
5538 5541
5538 9705
5538 7304
5539 5540
5539 5541
5539 5542
5539 5543
5539 7275
5539 8111
5540 5541
5540 5542
5540 5543
5540 5544
5541 5542
5541 5543
5541 5544
5541 5545
5542 5543
5542 5544
5542 5546
5543 5544
5543 5545
5543 5546
5543 5547
5544 5545
5544 5546
5544 5547
5544 5548
5545 5546
5545 5547
5545 5548
5545 5549
5546 5547
5546 5548
5546 5550
5547 5548
5547 5549
5547 5550
5547 5551
5548 5549
5548 5550
5548 5551
5548 5552
5549 5550
5549 5551
5549 5553
5549 6548
5550 5551
5550 5553
5550 5554
5551 5552
5551 5553
5551 5555
5552 5553
5552 5554
5552 5555
5552 5556
5553 5554
5553 5555
5553 5556
5553 5557
5554 5555
5554 5556
5554 5557
5554 5558
5555 5556
5555 5557
5555 5558
5555 5559
5556 5557
5556 5558
5556 5559
5556 6108
5556 7084
5557 5558
5557 5559
5557 5560
5557 5561
5558 5559
5558 5560
5558 5561
5558 5562
5558 6759
5559 5560
5559 5561
5559 5563
5559 9109
5560 5561
5560 5562
5560 5563
5560 5564
5560 9112
5561 5563
5561 5564
5561 5565
5562 5563
5562 5564
5563 5564
5563 5565
5563 5566
5563 5567
5563 6916
5564 5565
5564 5566
5564 5567
5564 5568
5564 9227
5565 5566
5565 5567
5565 5568
5565 5569
5566 5567
5566 5568
5566 5569
5566 5570
5567 5568
5567 5569
5567 5571
5567 7666
5567 9700
5568 5569
5568 5570
5568 5572
5569 5570
5569 5571
5569 5572
5569 5573
5570 5571
5570 5572
5570 5573
5570 5574
5571 5572
5571 5573
5571 5574
5571 5575
5572 5573
5572 5575
5572 5576
5572 7158
5573 5574
5573 5575
5573 5576
5573 5577
5574 5575
5574 5576
5574 5577
5574 5578
5575 5576
5575 5577
5575 5578
5575 9895
5576 5577
5576 5578
5576 5579
5576 5580
5577 5578
5577 5580
5577 5581
5578 5579
5578 5580
5578 5581
5579 5580
5579 5581
5579 5582
5579 5583
5580 5581
5580 5583
5580 5584
5581 5583
5581 5584
5581 5585
5581 8405
5582 5583
5582 5584
5582 5585
5582 5710
5583 5584
5583 5585
5583 5586
5583 5587
5584 5585
5584 5586
5584 5587
5585 5586
5585 5588
5585 5589
5585 6686
5586 5589
5586 5590
5586 8163
5586 6980
5587 5588
5587 5590
5587 5591
5587 8121
5588 5589
5588 5590
5588 5591
5588 5592
5589 5590
5589 5591
5589 5592
5589 5593
5589 5784
5590 5591
5590 5592
5590 5593
5590 5594
5591 5592
5591 5593
5591 5594
5591 5595
5592 5593
5592 5594
5592 5596
5592 6284
5593 5594
5593 5595
5593 5596
5593 5597
5593 8394
5594 5596
5594 5597
5594 5598
5595 5596
5595 5597
5595 5598
5595 5599
5595 6500
5596 5597
5596 5598
5596 5599
5596 5600
5597 5598
5597 5599
5597 5600
5597 5601
5598 5600
5598 5601
5598 5602
5599 5600
5599 5601
5599 5602
5599 5603
5600 5601
5600 5602
5600 5603
5600 5604
5600 7161
5601 5602
5601 5604
5601 5605
5602 5603
5602 5605
5602 8670
5602 6414
5603 5604
5603 5605
5603 5606
5603 5607
5604 5605
5604 5608
5604 8789
5605 5606
5605 5608
5605 5609
5606 5607
5606 5608
5606 5609
5606 5610
5607 5609
5607 5610
5607 5611
5608 5609
5608 5610
5608 5611
5608 5612
5609 5610
5609 5611
5609 5612
5609 5613
5610 5611
5610 5612
5610 5613
5610 5614
5611 5612
5611 5613
5611 5614
5611 5615
5612 5613
5612 5614
5612 5615
5612 5616
5613 5614
5613 5615
5613 5616
5613 5617
5614 5615
5614 5616
5614 5617
5614 9092
5615 5616
5615 5617
5615 5619
5616 5617
5616 5618
5616 5620
5617 5618
5617 5619
5617 5620
5618 5619
5618 5620
5618 5621
5618 5622
5619 5620
5619 5621
5619 5622
5619 5623
5620 5621
5620 5622
5620 5623
5620 5624
5621 5623
5621 9347
5622 5623
5622 5624
5622 5625
5622 5626
5622 7826
5623 5624
5623 5625
5623 5626
5623 5627
5624 5625
5624 5626
5624 5627
5624 5628
5625 5626
5625 5627
5625 5628
5625 5629
5626 5628
5626 5629
5626 5630
5627 5629
5627 5630
5627 5631
5628 5629
5628 5630
5628 5631
5628 5632
5629 5630
5629 5632
5629 5633
5629 5739
5630 5631
5630 5632
5630 5633
5630 5634
5631 5632
5631 5633
5631 5634
5631 5635
5632 5634
5632 5635
5632 5636
5633 5634
5633 5636
5633 5637
5634 5635
5634 5636
5634 5637
5634 8849
5635 5636
5635 5637
5635 5638
5635 5639
5635 7366
5636 5637
5636 5638
5636 5639
5636 5640
5637 5638
5637 5640
5637 5641
5637 5685
5638 5639
5638 5640
5638 5641
5638 5642
5638 9306
5639 5640
5639 5641
5639 5642
5639 5643
5639 6920
5639 8742
5640 5641
5640 5642
5640 5643
5640 5644
5641 5642
5641 5645
5641 9712
5642 5643
5642 5645
5642 5646
5642 8965
5643 5644
5643 5645
5643 5646
5643 5647
5644 5646
5644 5647
5644 5648
5644 8376
5645 5647
5645 8199
5645 7408
5646 5647
5646 5648
5646 5649
5646 5650
5647 5648
5647 5649
5647 5650
5648 5649
5648 5650
5648 5651
5649 5650
5649 5651
5649 5652
5649 5653
5650 5651
5650 5652
5650 5653
5650 5654
5651 5652
5651 5653
5651 5654
5651 5655
5652 5653
5652 5654
5652 9941
5653 5654
5653 5655
5653 5656
5653 5657
5654 5655
5654 5656
5654 5657
5654 8633
5655 5657
5655 5658
5655 5659
5656 5657
5656 5658
5656 5659
5657 5658
5657 5659
5657 5660
5657 5661
5658 5659
5658 5660
5658 5661
5658 5662
5659 5661
5659 5662
5659 8682
5659 6534
5660 5661
5660 5662
5660 5664
5661 5662
5661 5663
5661 5664
5661 5665
5662 5663
5662 5665
5662 5666
5662 9393
5663 5664
5663 5665
5663 5666
5663 5667
5664 5665
5664 5666
5664 5667
5664 5668
5665 5666
5665 5667
5665 5668
5665 5669
5666 5667
5666 5668
5666 5669
5666 5670
5667 5668
5667 5669
5667 5670
5667 5671
5668 5669
5668 5670
5668 5671
5668 5672
5669 5670
5669 5671
5669 5672
5669 5673
5670 5671
5670 5673
5670 5674
5671 5672
5671 5673
5671 5674
5671 5675
5671 9880
5672 5673
5672 5674
5672 5676
5673 5674
5673 5676
5673 5677
5674 5675
5674 5676
5674 5678
5674 7272
5675 5676
5675 5677
5675 5678
5676 5677
5676 5678
5676 5679
5676 5680
5677 5678
5677 5679
5677 5681
5677 7846
5678 5679
5678 5680
5678 5681
5678 5682
5679 5680
5679 5681
5679 5682
5679 5683
5680 5682
5680 5683
5680 5684
5681 5684
5681 5685
5681 8130
5682 5683
5682 5684
5682 5685
5682 5686
5683 5684
5683 5685
5683 5686
5683 5687
5684 5685
5684 5686
5684 5687
5684 5688
5685 5686
5685 5687
5685 5688
5685 5689
5686 5687
5686 5688
5686 5689
5686 5690
5687 5688
5687 5689
5687 5690
5687 5691
5688 5689
5688 5690
5688 5692
5689 5690
5689 5691
5689 5692
5689 5693
5689 9488
5690 5691
5690 5692
5690 5693
5690 5694
5691 5692
5691 5693
5691 5694
5691 5695
5692 5693
5692 5694
5692 5695
5692 5696
5693 5694
5693 5695
5693 5696
5693 5697
5694 5695
5694 5696
5694 5697
5694 5698
5695 5696
5695 5697
5695 5698
5695 5699
5696 5697
5696 5698
5696 5700
5696 5711
5697 5698
5697 5699
5697 5700
5697 5701
5698 5699
5698 5700
5698 5701
5698 5702
5699 5700
5699 5701
5699 5702
5699 5703
5699 8800
5700 5701
5700 5702
5700 5703
5700 5704
5701 5702
5701 5703
5701 5704
5701 5705
5702 5703
5702 5704
5702 5705
5702 5706
5703 5704
5703 5705
5703 5707
5704 5705
5704 5706
5704 5707
5704 5708
5705 5706
5705 5707
5705 5708
5705 5709
5706 5708
5706 5709
5706 5710
5707 5708
5707 5709
5707 5710
5707 5711
5708 5709
5708 5710
5708 5711
5708 5712
5709 5710
5709 5711
5709 5712
5709 5713
5710 5711
5710 5712
5710 5714
5710 5846
5711 5712
5711 6478
5712 5713
5712 5714
5712 5715
5712 5716
5713 5714
5713 5715
5713 5716
5713 5717
5714 5715
5714 5716
5714 5717
5714 5718
5715 5716
5715 5717
5715 5718
5715 5719
5715 6718
5716 5717
5716 5718
5716 5719
5716 5720
5717 5718
5717 5719
5717 5720
5717 5948
5718 5719
5718 5720
5718 5721
5718 5722
5719 5720
5719 5721
5719 8782
5719 5973
5720 5721
5720 5722
5720 5723
5720 5724
5721 5722
5721 5723
5721 5724
5721 5725
5722 5724
5722 5725
5722 5726
5723 5724
5723 5725
5723 5726
5723 5727
5724 5725
5724 5726
5724 5727
5724 5728
5725 5726
5725 5727
5725 5728
5725 5729
5726 5727
5726 5728
5726 5729
5726 5730
5727 5728
5727 5729
5727 5730
5727 5731
5727 7146
5728 5729
5728 5730
5728 5731
5728 7011
5729 5730
5729 5731
5729 5732
5729 5733
5729 8509
5730 5731
5730 5732
5730 5734
5730 6774
5731 5732
5731 5734
5731 5735
5731 9793
5732 5734
5732 5735
5732 5736
5732 9025
5733 5735
5733 5736
5733 5737
5734 5735
5734 5736
5734 5737
5734 5738
5735 5736
5735 5737
5735 5738
5735 5739
5736 5737
5736 5738
5736 5739
5736 5740
5737 5738
5737 5739
5737 5740
5737 5741
5737 7497
5738 5739
5738 5740
5738 5741
5738 5742
5739 5740
5739 5742
5739 5743
5739 6071
5739 6701
5740 5741
5740 5742
5740 5744
5740 7766
5741 5742
5741 5743
5741 5745
5741 6666
5742 5743
5742 5744
5742 5745
5742 5746
5743 5744
5743 5745
5743 5746
5743 5747
5744 5745
5744 5746
5744 5747
5744 5748
5744 7519
5745 5746
5745 5747
5745 5748
5746 5747
5746 5748
5746 5749
5746 5750
5747 5748
5747 5749
5747 5750
5747 5751
5748 5749
5748 5750
5748 5751
5748 7446
5749 5751
5749 5752
5749 5753
5749 5845
5750 5751
5750 5752
5750 5754
5750 7468
5751 5752
5751 5753
5751 5754
5751 5755
5752 5753
5752 5754
5752 5755
5752 5756
5753 5754
5753 5755
5753 5757
5754 5756
5754 5757
5754 9442
5755 5756
5755 5757
5755 5758
5755 5759
5756 5757
5756 5758
5756 5759
5756 5760
5757 5758
5757 5759
5757 5760
5757 5761
5758 5759
5758 5760
5758 5761
5758 5762
5759 5760
5759 5761
5759 5763
5759 9368
5760 5761
5760 5762
5760 5763
5760 5764
5761 5762
5761 5763
5761 5765
5761 6765
5762 5763
5762 5764
5762 5765
5762 5766
5763 5764
5763 5766
5763 9883
5763 6704
5763 8862
5764 5765
5764 5766
5764 5767
5764 5768
5765 5766
5765 5767
5765 5768
5765 5769
5766 5767
5766 5768
5766 5769
5766 5770
5767 5768
5767 5769
5767 5771
5767 7777
5768 5769
5768 5770
5768 5771
5768 5772
5768 8091
5769 5770
5769 5771
5769 5772
5769 5773
5769 6345
5770 5772
5770 5773
5770 5774
5771 5772
5771 5773
5771 5774
5771 5775
5772 5773
5772 5774
5772 5775
5772 6720
5773 5774
5773 5775
5773 5776
5774 5775
5774 5776
5774 5777
5774 5778
5775 5776
5775 5777
5775 5778
5775 5779
5776 5777
5776 5778
5776 5779
5776 5780
5777 5778
5777 5779
5777 5780
5777 5781
5778 5779
5778 5780
5778 5781
5778 5782
5779 5780
5779 5781
5779 5782
5779 5783
5779 8173
5780 5781
5780 5783
5780 5784
5781 5784
5781 5785
5782 5783
5782 5784
5782 5785
5782 5786
5782 7935
5783 5784
5783 5785
5783 5786
5783 6374
5784 5785
5784 5786
5784 5788
5785 5786
5785 5787
5785 5788
5785 9429
5786 5787
5786 5788
5786 5789
5786 5790
5786 7408
5787 5788
5787 5789
5787 5790
5787 5791
5788 5789
5788 5790
5788 5791
5788 5792
5789 5790
5789 5791
5789 5792
5789 5793
5789 9028
5790 5791
5790 5792
5790 5793
5790 5794
5791 5792
5791 5793
5791 5794
5791 5795
5792 5793
5792 5794
5792 5795
5792 5796
5793 5794
5793 5795
5793 5796
5793 5797
5794 5795
5794 5796
5794 5798
5795 5796
5795 5797
5795 5798
5795 5799
5796 5797
5796 5798
5796 5799
5796 5800
5797 5798
5797 5799
5797 5800
5797 5801
5798 5799
5798 5800
5798 5801
5798 5802
5799 5800
5799 5801
5799 5802
5799 5803
5800 5801
5800 5802
5800 5803
5800 5804
5801 5802
5801 5803
5801 5804
5801 5805
5802 5803
5802 5804
5802 5806
5802 5970
5803 5804
5803 5805
5803 5806
5803 5807
5803 9974
5804 5805
5804 5806
5804 5807
5804 7390
5805 5806
5805 5807
5805 5809
5805 7235
5806 5807
5806 5808
5806 5809
5806 5810
5807 5808
5807 5809
5807 5810
5807 5811
5808 5809
5808 5810
5808 5811
5808 5812
5809 5810
5809 5811
5809 5812
5809 5813
5810 5811
5810 5812
5810 5813
5810 5814
5811 5812
5811 5813
5811 5814
5811 5815
5812 5813
5812 5814
5812 5815
5812 5816
5813 5814
5813 5815
5813 5816
5813 5817
5814 5815
5814 5817
5814 5818
5815 5816
5815 5817
5815 5818
5815 5819
5816 5817
5816 5819
5816 5820
5817 5818
5817 5819
5817 5820
5817 5821
5817 6281
5818 5819
5818 5820
5818 5821
5818 5822
5819 5820
5819 5821
5819 5822
5819 5823
5820 5821
5820 5822
5820 5823
5820 5824
5821 5823
5821 5824
5821 5825
5821 6962
5822 5823
5822 5824
5822 5825
5822 5826
5823 5824
5823 5825
5823 5826
5823 5827
5824 5825
5824 5826
5824 5827
5824 5828
5825 5826
5825 5827
5825 5828
5826 5827
5826 5828
5826 5829
5826 5830
5827 5828
5827 5830
5827 8168
5827 6188
5828 5829
5828 5830
5828 5831
5828 5832
5829 5830
5829 5831
5829 5832
5829 5833
5830 5831
5830 5832
5830 5833
5830 5834
5831 5833
5831 5834
5831 5835
5831 5941
5832 5833
5832 5834
5832 5835
5832 5836
5832 8635
5833 5834
5833 5835
5833 5836
5833 5837
5834 5835
5834 5836
5834 5837
5834 5838
5835 5836
5835 5837
5835 5838
5835 5839
5836 5838
5836 5839
5836 9742
5836 8374
5837 5838
5837 5839
5837 5840
5837 5841
5838 5839
5838 5840
5838 5842
5839 5840
5839 5841
5839 5842
5839 5843
5840 5841
5840 5842
5840 5843
5840 5844
5841 5842
5841 5843
5841 5844
5841 5845
5842 5843
5842 5845
5842 5846
5843 5844
5843 5846
5843 5847
5843 6743
5844 5845
5844 5846
5844 5847
5844 5848
5845 5846
5845 5848
5845 5849
5846 5847
5846 5849
5846 5850
5847 5848
5847 5849
5847 5850
5847 5851
5848 5849
5848 5850
5848 5851
5848 5852
5849 5850
5849 5851
5849 5852
5849 5853
5850 5851
5850 5852
5850 5854
5851 5852
5851 5853
5851 5854
5851 5855
5852 5853
5852 5854
5852 5855
5852 5856
5853 5854
5853 5855
5853 5856
5853 5857
5854 5855
5854 5856
5854 5857
5854 5858
5854 6663
5855 5856
5855 5857
5855 5858
5855 5859
5856 5857
5856 5859
5856 5860
5857 5858
5857 5859
5857 5860
5857 5861
5857 9630
5858 5859
5858 5860
5858 5861
5858 5862
5859 5860
5859 5861
5859 5862
5860 5861
5860 5862
5860 5863
5860 5864
5861 5862
5861 5863
5861 5864
5861 5865
5862 5863
5862 5864
5862 5865
5862 5866
5863 5864
5863 5865
5863 5866
5864 5865
5864 5866
5864 5867
5864 5868
5865 5866
5865 5867
5865 5868
5865 5869
5866 5867
5866 5868
5867 5869
5867 5870
5867 5871
5868 5869
5868 5870
5868 5871
5868 5872
5869 5870
5869 5872
5869 5873
5869 6060
5870 5871
5870 5872
5870 5873
5871 5872
5871 5873
5871 5874
5871 7908
5872 5873
5872 5874
5872 5875
5872 5876
5873 5874
5873 5875
5873 5876
5873 5877
5874 5875
5874 5876
5874 5877
5874 5878
5875 5877
5875 5878
5875 5879
5876 5877
5876 5878
5876 5879
5876 5880
5877 5878
5877 5879
5877 5880
5877 5881
5877 6633
5878 5881
5878 5882
5879 5880
5879 5881
5879 5882
5879 5883
5880 5881
5880 5882
5880 8837
5880 9698
5881 5882
5881 5883
5881 5884
5881 5885
5882 5883
5882 5884
5882 5885
5882 5886
5883 5884
5883 5885
5883 5886
5883 5887
5883 9086
5884 5885
5884 5886
5884 5887
5884 5888
5885 5886
5885 5887
5885 5888
5885 5889
5885 7270
5886 5887
5886 5888
5886 5889
5886 5890
5887 5888
5887 5889
5887 5890
5887 5891
5888 5889
5888 5890
5888 5891
5888 5892
5888 6850
5889 5890
5889 5891
5889 5892
5889 5893
5890 5891
5890 5892
5890 5893
5890 5894
5891 5892
5891 5893
5891 5894
5891 5895
5891 7997
5892 5893
5892 5894
5892 5895
5892 5896
5892 9552
5893 5894
5893 5895
5893 5897
5893 9901
5894 5895
5894 5896
5894 5897
5894 5898
5895 5896
5895 5897
5895 5898
5895 5899
5896 5898
5896 5899
5896 5900
5896 7464
5896 9845
5897 5898
5897 5899
5897 5900
5897 5901
5898 5899
5898 5900
5898 5901
5898 5902
5899 5900
5899 5901
5899 5903
5899 6738
5900 5901
5900 5902
5900 5903
5900 5904
5900 8887
5901 5902
5901 5903
5901 5904
5901 5905
5902 5903
5902 5904
5902 5905
5902 5906
5903 5904
5903 5905
5903 5906
5903 5907
5903 9458
5904 5906
5904 5907
5904 5908
5904 6072
5905 5906
5905 5907
5905 5908
5905 5909
5905 6697
5906 5907
5906 5908
5906 5909
5906 5910
5907 5908
5907 5909
5907 5910
5907 7048
5908 5909
5908 5911
5908 5912
5908 7664
5909 5910
5909 5911
5909 5912
5909 5913
5909 8567
5910 5911
5910 5914
5910 8932
5911 5912
5911 5913
5911 5914
5911 5915
5912 5913
5912 5914
5912 5915
5912 5916
5913 5914
5913 5915
5913 5916
5913 5917
5914 5915
5914 5916
5914 5917
5914 5918
5915 5916
5915 5917
5915 5918
5915 5919
5916 5917
5916 5918
5916 5919
5916 5920
5917 5918
5917 5919
5917 5920
5917 5921
5918 5919
5918 5920
5918 5921
5918 5922
5919 5920
5919 5921
5919 5922
5919 5923
5920 5921
5920 5922
5920 5923
5920 5924
5921 5922
5921 5924
5921 5925
5921 8624
5922 5923
5922 5924
5922 5926
5922 9049
5923 5924
5923 5925
5923 5926
5923 5927
5924 5925
5924 5926
5924 5928
5925 5926
5925 5927
5925 5928
5925 5929
5926 5927
5926 5928
5926 5929
5926 5930
5927 5928
5927 5929
5927 5931
5927 8074
5927 8662
5928 5929
5928 5930
5928 5931
5928 5932
5929 5930
5929 5931
5929 5933
5929 7466
5930 5931
5930 5932
5930 5933
5930 5934
5931 5932
5931 5933
5931 5934
5931 5935
5932 5933
5932 5934
5932 5935
5932 5936
5933 5934
5933 5936
5933 5937
5934 5935
5934 5936
5934 5938
5935 5936
5935 5937
5935 5938
5935 5939
5936 5937
5936 5938
5936 5939
5936 5940
5937 5938
5937 5939
5937 5940
5937 5941
5937 9808
5938 5939
5938 5940
5938 5941
5938 5942
5939 5940
5939 5941
5939 5942
5939 5943
5940 5941
5940 5942
5940 5944
5941 5942
5941 5943
5941 5944
5941 5945
5942 5943
5942 5944
5942 5945
5942 5946
5943 5944
5943 5945
5943 5946
5944 5946
5944 5947
5944 5948
5944 7609
5945 5946
5945 5947
5945 5948
5945 5949
5946 5947
5946 5949
5946 5950
5946 7935
5947 5948
5947 5950
5947 5951
5948 5949
5948 5952
5949 5950
5949 5951
5949 5952
5949 5953
5950 5951
5950 5952
5950 5953
5951 5952
5951 5953
5951 5954
5951 5955
5952 5953
5952 5954
5952 5955
5952 5956
5952 9083
5953 5954
5953 5955
5953 5956
5953 5957
5954 5955
5954 5956
5954 5957
5954 5958
5955 5956
5955 5958
5955 5959
5955 7593
5956 5957
5956 5960
5957 5958
5957 5959
5957 5960
5957 5961
5958 5959
5958 5961
5958 5962
5959 5960
5959 5961
5959 5962
5959 5963
5960 5961
5960 5962
5960 5964
5961 5962
5961 5963
5961 5964
5961 5965
5961 8127
5962 5963
5962 5964
5962 5965
5962 5966
5963 5964
5963 5966
5963 5967
5963 7402
5964 5965
5964 5966
5964 5967
5964 5968
5965 5966
5965 5967
5965 5968
5965 5969
5966 5967
5966 5968
5966 5969
5967 5968
5967 5969
5967 5970
5967 5971
5968 5969
5968 5970
5968 5971
5968 5972
5969 5970
5969 5971
5969 5972
5969 5973
5970 5971
5970 5972
5970 8267
5970 8322
5971 5972
5971 5973
5971 5974
5971 5975
5972 5973
5972 5974
5972 5975
5972 5976
5972 9363
5973 5974
5973 5975
5974 5976
5974 5977
5974 5978
5974 8523
5975 5976
5975 7108
5975 6431
5976 5977
5976 5978
5976 5979
5976 5980
5977 5978
5977 5979
5977 5980
5977 5981
5977 8414
5978 5979
5978 5980
5978 5981
5978 5982
5979 5981
5979 5982
5979 5983
5979 7428
5980 5981
5980 5982
5980 5983
5980 5984
5981 5982
5981 5983
5981 5984
5982 5983
5982 5984
5982 5986
5983 5984
5983 5985
5983 5986
5983 5987
5984 5985
5984 5986
5984 5987
5984 5988
5985 5986
5985 5987
5985 5989
5985 9172
5986 5987
5986 5988
5986 5989
5986 5990
5987 5988
5987 5989
5987 5990
5987 8493
5987 7720
5988 5989
5988 5991
5988 5992
5988 6562
5989 5990
5989 5991
5989 5992
5989 5993
5990 5991
5990 5994
5990 7520
5990 9209
5991 5992
5991 5993
5991 5994
5991 5995
5992 5993
5992 5994
5992 5995
5992 5996
5992 9297
5993 5994
5993 5995
5993 5996
5993 5997
5994 5995
5994 5997
5994 5998
5995 5996
5995 5997
5995 9757
5995 7268
5996 5997
5996 5998
5996 5999
5996 6000
5997 5998
5997 5999
5997 6000
5997 6001
5998 5999
5998 6000
5998 6001
5998 6002
5999 6000
5999 6001
5999 6002
5999 7018
6000 6001
6000 6002
6000 6003
6000 6004
6001 6003
6001 6004
6001 8484
6002 6003
6002 6004
6002 6005
6002 6006
6003 6005
6003 6007
6004 6005
6004 6006
6004 6007
6004 6008
6005 6006
6005 6007
6005 6008
6005 6009
6006 6007
6006 6009
6006 6010
6006 8551
6007 6008
6007 6009
6007 6010
6007 6011
6008 6009
6008 6011
6008 6012
6008 7574
6009 6010
6009 6012
6009 6013
6010 6012
6010 6013
6010 6014
6011 6012
6011 6013
6011 6014
6011 6015
6012 6013
6012 6014
6012 6015
6012 6016
6013 6014
6013 6015
6013 6016
6013 6017
6014 6015
6014 6016
6014 6017
6014 6018
6015 6016
6015 6017
6015 6018
6015 6019
6016 6017
6016 6018
6016 6019
6016 6020
6017 6018
6017 6019
6017 6020
6017 6021
6018 6019
6018 6020
6018 6021
6018 6022
6019 6020
6019 6021
6019 6022
6019 6023
6020 6021
6020 6023
6020 6024
6021 6022
6021 6023
6021 6024
6021 6025
6021 7772
6022 6023
6022 6024
6022 6025
6022 6026
6023 6024
6023 6025
6023 6026
6023 6027
6023 6898
6024 6025
6024 6026
6024 6027
6024 6028
6024 8378
6025 6027
6025 6029
6025 6181
6025 7444
6026 6027
6026 6028
6026 6029
6026 6030
6027 6028
6027 6029
6027 6030
6027 6031
6027 7077
6028 6029
6028 6030
6028 6031
6028 6032
6029 6030
6029 6031
6029 6032
6029 6033
6029 9725
6029 8955
6030 6031
6030 6032
6030 6033
6030 6034
6031 6032
6031 6033
6031 6034
6031 6035
6032 6033
6032 6035
6032 6036
6032 8733
6033 6034
6033 6035
6033 6036
6033 6037
6034 6035
6034 6036
6034 6037
6034 6038
6035 6036
6035 6037
6035 6038
6035 6039
6036 6037
6036 6038
6036 6039
6036 6040
6037 6038
6037 6039
6037 6040
6038 6039
6038 6040
6038 6041
6038 6042
6039 6040
6039 6041
6039 6042
6039 6043
6040 6041
6040 6042
6040 6043
6040 6044
6041 6042
6041 6043
6041 6045
6041 8827
6042 6043
6042 6045
6042 6046
6042 7830
6043 6044
6043 6045
6043 6046
6044 6045
6044 6047
6045 6046
6045 6047
6045 6048
6045 6049
6046 6047
6046 6048
6046 8969
6046 8016
6047 6048
6047 6049
6047 6050
6047 6051
6048 6049
6048 6050
6048 6051
6048 6052
6049 6050
6049 6051
6049 6052
6049 6053
6050 6051
6050 6052
6050 6053
6050 6054
6051 6052
6051 6053
6051 6154
6051 6413
6052 6053
6052 6054
6052 6055
6052 6056
6053 6054
6053 6055
6053 6056
6054 6055
6054 6056
6054 6058
6055 6056
6055 6057
6055 6058
6055 7535
6055 6514
6055 6767
6056 6057
6056 6058
6056 6060
6056 7420
6057 6058
6057 6059
6057 6060
6057 6061
6058 6059
6058 6060
6058 6061
6058 6062
6059 6060
6059 6061
6059 6062
6059 6063
6060 6061
6060 6062
6060 6063
6060 6064
6061 6062
6061 6063
6061 6064
6061 6065
6062 6063
6062 6064
6062 6065
6062 6066
6063 6064
6063 6066
6063 6067
6063 8281
6064 6065
6064 6066
6064 6067
6064 8983
6064 8660
6065 6066
6065 6068
6065 6069
6066 6067
6066 6068
6066 6069
6066 6070
6066 9348
6067 6068
6067 6069
6067 6070
6068 6069
6068 6070
6068 6071
6068 6072
6069 6070
6069 6071
6069 6072
6069 6073
6070 6071
6070 6072
6070 6073
6070 6074
6071 6073
6071 6074
6071 6075
6072 6075
6072 6076
6072 9017
6073 6074
6073 6075
6073 6076
6073 6077
6074 6075
6074 6076
6074 6078
6074 9692
6075 6076
6075 6077
6075 6078
6075 6079
6076 6079
6076 6080
6077 6078
6077 6079
6077 6081
6078 6079
6078 6080
6078 6081
6078 6082
6078 8090
6078 8322
6079 6080
6079 6081
6079 6082
6080 6081
6080 6082
6080 6083
6080 6084
6081 6082
6081 6083
6081 6085
6082 6084
6082 6085
6083 6084
6083 6085
6083 6086
6083 6087
6084 6085
6084 6086
6084 6087
6084 6088
6084 7941
6085 6086
6085 6088
6085 6089
6086 6087
6086 6088
6086 6089
6086 6090
6087 6088
6087 6089
6087 6090
6087 6091
6088 6089
6088 6090
6088 6091
6088 6092
6089 6090
6089 6091
6089 6092
6089 6093
6090 6092
6090 6093
6090 6094
6090 8986
6091 6093
6091 6094
6091 6095
6092 6093
6092 6094
6092 6095
6092 6096
6093 6094
6093 6095
6093 6097
6093 6530
6094 6095
6094 6096
6094 6097
6094 6098
6094 6104
6095 6096
6095 6097
6095 6098
6096 6097
6096 6098
6096 6100
6097 6098
6097 6100
6097 6101
6098 6099
6098 6101
6098 6102
6099 6100
6099 6101
6099 6102
6099 6103
6100 6101
6100 6102
6100 6103
6100 6104
6101 6102
6101 6103
6101 6104
6101 6105
6102 6104
6102 6105
6102 6106
6103 6104
6103 6105
6103 7480
6104 6105
6104 6106
6104 6108
6104 7469
6105 6106
6105 6107
6105 6108
6105 6109
6106 6107
6106 6108
6106 6109
6106 6110
6107 6109
6107 6110
6107 6111
6108 6109
6108 6110
6108 6111
6108 6112
6109 6110
6109 6111
6109 6112
6109 6113
6110 6111
6110 6112
6110 6113
6110 6114
6111 6112
6111 6113
6111 6114
6111 8115
6111 6560
6111 8602
6112 6113
6112 6114
6112 6115
6112 6116
6112 8863
6113 6114
6113 6115
6113 6116
6113 6117
6113 8803
6114 6115
6114 6116
6114 6117
6114 6118
6115 6116
6115 6117
6115 6118
6115 6119
6116 6117
6116 6118
6116 6119
6116 6120
6116 7587
6117 6119
6117 6120
6117 6121
6117 9456
6118 6119
6118 6120
6118 6121
6118 6122
6118 8554
6119 6120
6119 6121
6119 6123
6120 6121
6120 6122
6120 6124
6121 6122
6121 6124
6121 6125
6121 7792
6122 6123
6122 6125
6122 6126
6122 6344
6123 6124
6123 6125
6123 6126
6123 6127
6124 6126
6124 9322
6124 8938
6125 6128
6125 6129
6126 6127
6126 6129
6127 6128
6127 6129
6127 6130
6127 6131
6128 6129
6128 6130
6128 6131
6128 6132
6128 6610
6129 6130
6129 6131
6129 6132
6129 6133
6130 6132
6130 6133
6130 6134
6131 6134
6131 6135
6131 8667
6132 6133
6132 6134
6132 6135
6132 6136
6132 9679
6132 6730
6133 6134
6133 6135
6133 6136
6133 6137
6134 6135
6134 6136
6134 6137
6134 6138
6134 9960
6135 6136
6135 6137
6135 6138
6135 6139
6136 6137
6136 6138
6136 6140
6137 6138
6137 6139
6137 6140
6137 6141
6138 6139
6138 6140
6138 6141
6138 6142
6139 6140
6139 6141
6139 6142
6139 6143
6139 6752
6140 6141
6140 6142
6140 6143
6140 6144
6141 6142
6141 6143
6141 6144
6141 7483
6142 6143
6142 6144
6142 6145
6142 6146
6143 6144
6143 6145
6143 6146
6143 7798
6144 6145
6144 6146
6144 6147
6144 6148
6144 6528
6145 6146
6145 6147
6145 6148
6145 6149
6146 6147
6146 6148
6146 6149
6146 6150
6147 6148
6147 6149
6147 6150
6148 6149
6148 6150
6148 6151
6148 7194
6149 6150
6149 6151
6149 6152
6149 6153
6150 6152
6150 6153
6150 6154
6151 6152
6151 6153
6151 6155
6151 9382
6152 6153
6152 6154
6152 6155
6152 6156
6153 6154
6153 6155
6153 6156
6153 6157
6154 6155
6154 6156
6154 6157
6154 6158
6155 6156
6155 6157
6155 6158
6155 6159
6156 6157
6156 6158
6156 6159
6156 6160
6157 6158
6157 6159
6157 6160
6157 6161
6157 8908
6158 6159
6158 6160
6158 6161
6158 6162
6159 6160
6159 6161
6159 6163
6160 6161
6160 6162
6160 6163
6160 6164
6161 6162
6161 6163
6161 6164
6161 6165
6161 8357
6162 6163
6162 6164
6162 6165
6162 9427
6163 6164
6163 6165
6163 6166
6163 6167
6164 6165
6164 6166
6164 6167
6164 6168
6165 6167
6165 6168
6165 6169
6165 8333
6166 6167
6166 6168
6166 6169
6166 6170
6167 6168
6167 6169
6167 6170
6167 6171
6168 6169
6168 6170
6168 6171
6168 6172
6169 6170
6169 6171
6169 6172
6169 6173
6170 6172
6170 6173
6170 6174
6171 6172
6171 6173
6171 6174
6171 6175
6172 6173
6172 6174
6172 6175
6172 6176
6173 6174
6173 6175
6173 6176
6173 6177
6174 6175
6174 6176
6174 6177
6174 6178
6175 6177
6175 6178
6175 6179
6176 6177
6176 6178
6176 6179
6176 6180
6177 6178
6177 6179
6177 6180
6177 6181
6178 6179
6178 6180
6178 6182
6179 6181
6179 6182
6179 6183
6179 8002
6180 6182
6180 6183
6180 6184
6180 8332
6181 6182
6181 6183
6181 6184
6181 6185
6182 6183
6182 6184
6182 6185
6182 6186
6183 6185
6183 6186
6183 6187
6183 8116
6184 6185
6184 6186
6184 6187
6184 6188
6184 6375
6184 8024
6185 6186
6185 6187
6185 6188
6185 6189
6186 6187
6186 6188
6186 6189
6186 6190
6186 7029
6186 8948
6187 6188
6187 6189
6187 6190
6187 6191
6188 6190
6188 6191
6188 6192
6188 7938
6188 9334
6189 6191
6189 6192
6189 6193
6190 6191
6190 6192
6190 6193
6190 6194
6190 7043
6191 6192
6191 6193
6191 6194
6191 6195
6192 6193
6192 6194
6192 6195
6192 6196
6193 6194
6193 6195
6193 6196
6193 6197
6194 6195
6194 6196
6194 6197
6194 6198
6194 8734
6194 7804
6195 6196
6195 6197
6195 6198
6195 6199
6196 6197
6196 6198
6196 6200
6197 6198
6197 6199
6197 6201
6198 6199
6198 6200
6198 6201
6198 6202
6199 6200
6199 6201
6199 6202
6199 6203
6200 6201
6200 6202
6200 6203
6200 6204
6201 6202
6201 6203
6201 6204
6201 6205
6201 7455
6202 6203
6202 6204
6202 6205
6202 6206
6203 6205
6203 6206
6203 9245
6204 6205
6204 6206
6204 6207
6204 6208
6204 7223
6204 6792
6205 6206
6205 6207
6205 6208
6205 6209
6206 6207
6206 6208
6206 6209
6206 6210
6207 6208
6207 6209
6207 6210
6207 6211
6208 6209
6208 6210
6208 6211
6208 6212
6209 6211
6209 6212
6209 6213
6209 8973
6210 6212
6210 6213
6210 6214
6211 6212
6211 6213
6211 6214
6211 6215
6211 8905
6212 6213
6212 6214
6212 6215
6212 6216
6213 6214
6213 6216
6213 6217
6214 6215
6214 6216
6214 6217
6214 6218
6215 6216
6215 6217
6215 6218
6215 6219
6216 6217
6216 6218
6216 6219
6216 6220
6217 6218
6217 6219
6217 6220
6218 6219
6218 6220
6218 6221
6218 6222
6219 6220
6219 6221
6219 6222
6219 6223
6220 6221
6220 6222
6220 6223
6220 6224
6221 6222
6221 6223
6221 6224
6221 6225
6222 6223
6222 6224
6222 6226
6222 6399
6223 6224
6223 6225
6223 6226
6223 6227
6224 6225
6224 6226
6224 6227
6224 6228
6225 6226
6225 6227
6225 6228
6225 6229
6226 6227
6226 6228
6226 6229
6226 6230
6227 6228
6227 6229
6227 6230
6227 6231
6228 6229
6228 6230
6228 6231
6228 6232
6229 6230
6229 6231
6229 6232
6229 6233
6230 6231
6230 6232
6230 6233
6230 6234
6231 6232
6231 6233
6231 6234
6231 6235
6231 7980
6232 6233
6232 6234
6232 6236
6233 6234
6233 6235
6233 6236
6233 6237
6234 6236
6234 6238
6234 7835
6234 6655
6235 6236
6235 6237
6235 6239
6236 6237
6236 6239
6236 6240
6237 6238
6237 6239
6237 6240
6237 6241
6238 6239
6238 6240
6238 6242
6238 6764
6239 6240
6239 6241
6239 6242
6239 6243
6240 6241
6240 6242
6240 6243
6240 6244
6240 6615
6241 6243
6241 6244
6241 6245
6242 6243
6242 6244
6242 6245
6242 6246
6243 6244
6243 6245
6243 6246
6243 6247
6244 6245
6244 6246
6244 6247
6244 6248
6244 9084
6245 6246
6245 6247
6245 6248
6245 6249
6246 6247
6246 6248
6246 6249
6246 6250
6247 6248
6247 6249
6247 6250
6247 6251
6248 6249
6248 6250
6248 6251
6248 6252
6249 6250
6249 6251
6249 6252
6249 6253
6250 6251
6250 6252
6250 6253
6251 6253
6251 6254
6252 6253
6252 6254
6252 6255
6253 6254
6253 6256
6253 6257
6254 6256
6254 6257
6254 6258
6255 6256
6255 6257
6255 6258
6255 6259
6256 6257
6256 6258
6256 6259
6256 6260
6256 7250
6257 6258
6257 6259
6257 6260
6257 6261
6257 7113
6258 6259
6258 6260
6258 6261
6258 6262
6259 6260
6259 6261
6259 6262
6259 6263
6260 6261
6260 6262
6260 6263
6260 6264
6261 6262
6261 6263
6261 6264
6261 6265
6262 6263
6262 6264
6262 6265
6262 6266
6263 6264
6263 6265
6263 6266
6263 6267
6264 6265
6264 6266
6264 6267
6264 7004
6265 6266
6265 6267
6265 6268
6265 6269
6266 6267
6266 6268
6266 6269
6266 6270
6267 6268
6267 6270
6267 6271
6267 9366
6267 8032
6268 6269
6268 6270
6268 6271
6268 6272
6269 6270
6269 6271
6269 6272
6269 6273
6270 6271
6270 6272
6270 6273
6270 6274
6271 6272
6271 6275
6272 6273
6272 6274
6272 6275
6272 8876
6273 6274
6273 6275
6273 6277
6273 8135
6273 6610
6274 6275
6274 6276
6274 6277
6274 6278
6275 6276
6275 6278
6275 6279
6275 9595
6276 6277
6276 6278
6276 6279
6276 6280
6277 6278
6277 6280
6277 6281
6278 6279
6278 6280
6278 6281
6278 6282
6279 6280
6279 6281
6279 6282
6279 6283
6280 6281
6280 6282
6280 6283
6280 6284
6281 6283
6281 6284
6282 6283
6282 6284
6282 6285
6282 6286
6283 6284
6283 6285
6283 6286
6283 6287
6283 9580
6283 8596
6284 6285
6284 6287
6284 6288
6285 6286
6285 6287
6285 6288
6285 6289
6286 6287
6286 6288
6286 6290
6286 7687
6287 6288
6287 6289
6287 6290
6287 6291
6288 6289
6288 6290
6288 6291
6288 8328
6289 6290
6289 6292
6289 6293
6289 7859
6290 6291
6290 6292
6290 6293
6290 6294
6291 6292
6291 6293
6291 6294
6291 6295
6292 6293
6292 6294
6292 6295
6292 6296
6293 6294
6293 6295
6293 6296
6293 6297
6294 6295
6294 6297
6294 6298
6295 6296
6295 6297
6295 6298
6295 6299
6296 6297
6296 6298
6296 6299
6297 6298
6297 6299
6298 6299
6298 6300
6298 6301
6298 6302
6299 6300
6299 6301
6299 6302
6299 6303
6300 6301
6300 6302
6300 6304
6301 6302
6301 6303
6301 6304
6301 6305
6302 6303
6302 6304
6302 6305
6302 6306
6303 6304
6303 6305
6303 6306
6304 6305
6304 6306
6304 6307
6304 6308
6305 6306
6305 6307
6305 6309
6306 6307
6306 6309
6306 6310
6306 8881
6307 6308
6307 6309
6307 6310
6307 6311
6308 6309
6308 6310
6308 6311
6308 9880
6309 6310
6309 6311
6309 6312
6309 6313
6310 6311
6310 6312
6310 6313
6310 6314
6311 6312
6311 6313
6311 6314
6311 6315
6312 6313
6312 6314
6312 6315
6312 6316
6313 6314
6313 6315
6313 6316
6313 6317
6314 6315
6314 6316
6314 6317
6314 6318
6315 6316
6315 6317
6315 6318
6315 6319
6316 6317
6316 6318
6316 6320
6317 6318
6317 6319
6317 6320
6317 6321
6318 6319
6318 6320
6318 6321
6318 9395
6319 6320
6319 6321
6319 6322
6319 6323
6320 6321
6320 6322
6320 6323
6320 6324
6321 6322
6321 6323
6321 6324
6321 6325
6322 6323
6322 6325
6322 6326
6323 6324
6323 6325
6323 6326
6323 6327
6324 6325
6324 6326
6324 6327
6324 6328
6325 6326
6325 6327
6325 6328
6325 6329
6326 6327
6326 6328
6326 6329
6326 6330
6327 6328
6327 6329
6327 6331
6327 8234
6328 6329
6328 6331
6328 6332
6329 6331
6329 6332
6329 6333
6330 6331
6330 6332
6330 6334
6330 7433
6330 8393
6331 6332
6331 6333
6331 6334
6331 6335
6332 6334
6332 6335
6332 6336
6333 6334
6333 6335
6333 6336
6333 6337
6334 6336
6334 6337
6334 7022
6334 8022
6335 6337
6335 6338
6335 6339
6335 9120
6336 6337
6336 6338
6336 6339
6336 6340
6336 6617
6337 6338
6337 6339
6337 6340
6337 6341
6338 6339
6338 6340
6338 6341
6338 6342
6339 6340
6339 6341
6339 6342
6339 6343
6340 6341
6340 6342
6340 6343
6340 6344
6341 6342
6341 6343
6341 6344
6341 6345
6342 6343
6342 6344
6342 6345
6342 6346
6343 6344
6343 6345
6343 6346
6343 6347
6344 6345
6344 6346
6344 6347
6344 6348
6345 6346
6345 6348
6345 6349
6346 6347
6346 6348
6346 6349
6346 6350
6347 6348
6347 6349
6347 6350
6347 6351
6347 7173
6348 6349
6348 6350
6348 6351
6348 7188
6349 6350
6349 6351
6349 6352
6349 6353
6350 6351
6350 6352
6350 6354
6351 6352
6351 6353
6351 6354
6351 6355
6352 6353
6352 6354
6352 6355
6352 6356
6353 6355
6353 6356
6354 6355
6354 6356
6354 6357
6354 6358
6355 6356
6355 6357
6355 6358
6355 6359
6356 6358
6356 6359
6356 6360
6357 6358
6357 6359
6357 6360
6357 6361
6358 6359
6358 6360
6358 6361
6358 6362
6359 6360
6359 6361
6359 6362
6359 6363
6360 6361
6360 6362
6360 6364
6360 6950
6361 6362
6361 6363
6361 6364
6361 6365
6362 6363
6362 6364
6362 6365
6362 6366
6363 6365
6363 6366
6363 6367
6363 9424
6364 6365
6364 6366
6364 6368
6365 6366
6365 6367
6365 6368
6365 6369
6366 6367
6366 6370
6366 8939
6367 6368
6367 6369
6367 6370
6367 6371
6368 6369
6368 6370
6368 6371
6368 6372
6369 6370
6369 6371
6369 6372
6369 6373
6370 6371
6370 6372
6370 6373
6370 6374
6371 6372
6371 6374
6371 6375
6371 6499
6372 6373
6372 6374
6372 6375
6372 6376
6373 6375
6373 6376
6373 6377
6374 6375
6374 6376
6374 6378
6375 6376
6375 6377
6375 6378
6376 6377
6376 6378
6376 6379
6376 6380
6377 6378
6377 6379
6377 6380
6377 6381
6377 8819
6378 6379
6378 6380
6378 6381
6378 6382
6379 6380
6379 6383
6379 8818
6380 6381
6380 6382
6380 6383
6380 6384
6380 8322
6381 6382
6381 6384
6381 6385
6381 9794
6381 9645
6382 6383
6382 6384
6382 6385
6382 6386
6383 6384
6383 6385
6383 6386
6383 6387
6383 6978
6384 6385
6384 6386
6384 6387
6384 6388
6385 6386
6385 6387
6385 8875
6386 6387
6386 6388
6386 6389
6386 6390
6386 8040
6387 6389
6387 6390
6387 6391
6387 7067
6388 6389
6388 6390
6388 6391
6388 6392
6389 6390
6389 6391
6389 6392
6389 6393
6390 6391
6390 6392
6390 6393
6390 6394
6391 6392
6391 6393
6391 6394
6391 6395
6391 7176
6392 6393
6392 6394
6392 6395
6392 6396
6393 6394
6393 6395
6393 6396
6393 6397
6393 9534
6394 6395
6394 6396
6394 6397
6394 6398
6395 6396
6395 6397
6395 6398
6395 6399
6396 6397
6396 6398
6396 6399
6396 6400
6397 6398
6397 6399
6397 6400
6397 6401
6397 7904
6398 6399
6398 6400
6398 6402
6398 8865
6399 6400
6399 6401
6399 6402
6400 6401
6400 6402
6400 6403
6400 6404
6401 6402
6401 6403
6401 6404
6401 6405
6402 6403
6402 6404
6402 6405
6402 6406
6403 6404
6403 6405
6403 6406
6403 6407
6404 6405
6404 6406
6404 6407
6404 6408
6405 6406
6405 6407
6405 6408
6405 6409
6406 6407
6406 6408
6406 6409
6406 6410
6407 6409
6407 6410
6407 6411
6407 7361
6408 6409
6408 6410
6408 6411
6408 6412
6409 6410
6409 6411
6409 6413
6410 6411
6410 6412
6410 6413
6411 6412
6411 6413
6411 6414
6411 6415
6412 6413
6412 6414
6412 6415
6412 6416
6413 6415
6413 6417
6413 8461
6413 9030
6414 6415
6414 6416
6414 6417
6415 6416
6415 6417
6415 6418
6415 6419
6416 6417
6416 6418
6416 6419
6416 6420
6417 6418
6417 6419
6417 6420
6417 6421
6418 6419
6418 6420
6418 6421
6418 6422
6419 6420
6419 6421
6419 6422
6419 6423
6420 6421
6420 6423
6420 6424
6421 6422
6421 6423
6421 6424
6421 6425
6422 6423
6422 6424
6422 6425
6422 6426
6423 6424
6423 6425
6423 6426
6423 6427
6424 6425
6424 6426
6424 6427
6424 6428
6425 6426
6425 6427
6425 6428
6425 6429
6426 6427
6426 6428
6426 6429
6426 6430
6427 6428
6427 6429
6427 6430
6427 6431
6428 6430
6428 6431
6428 6432
6428 8658
6429 6430
6429 6431
6429 6432
6429 6433
6430 6431
6430 6433
6430 6434
6430 8326
6431 6432
6431 6433
6431 6434
6431 6435
6432 6433
6432 6434
6432 6435
6432 6436
6432 9856
6433 6434
6433 6435
6433 6437
6434 6435
6434 6436
6434 6437
6434 6438
6435 6436
6435 6437
6435 6438
6435 6439
6436 6437
6436 6438
6436 6439
6437 6438
6437 6439
6437 6440
6438 6439
6438 6441
6438 6442
6439 6440
6439 6442
6439 6443
6440 6441
6440 6442
6440 6443
6440 6444
6441 6442
6441 6443
6441 6444
6441 6445
6442 6443
6442 6444
6442 6445
6442 6446
6443 6444
6443 6445
6443 6446
6443 6447
6443 9384
6444 6445
6444 6446
6444 6447
6444 6448
6445 6446
6445 6447
6445 6448
6445 6449
6446 6447
6446 6448
6446 6449
6446 6450
6447 6448
6447 6449
6447 6450
6447 6451
6447 6544
6448 6449
6448 6450
6448 6451
6448 6452
6449 6450
6449 6451
6449 6452
6449 6453
6450 6451
6450 6452
6450 6453
6450 6454
6451 6452
6451 6453
6451 6454
6451 6455
6452 6453
6452 6454
6452 6456
6453 6454
6453 6455
6453 6456
6453 6457
6454 6455
6454 6456
6454 6457
6454 6458
6455 6456
6455 6457
6455 6458
6455 6459
6456 6457
6456 6458
6456 6459
6456 6460
6457 6459
6457 6460
6457 6461
6457 6872
6458 6460
6458 6461
6458 6462
6458 8712
6459 6460
6459 6461
6459 6462
6459 6463
6460 6461
6460 6463
6460 6464
6461 6462
6461 6463
6461 6464
6461 6465
6462 6463
6462 6464
6462 6465
6462 6466
6463 6465
6463 6466
6463 6467
6463 6566
6464 6465
6464 6466
6464 6468
6465 6466
6465 6467
6465 6468
6465 8133
6466 6467
6466 6468
6466 6469
6466 6470
6467 6468
6467 6469
6467 6471
6468 6469
6468 6470
6468 6471
6468 6472
6469 6470
6469 6471
6469 6472
6469 6473
6469 7943
6470 6471
6470 6472
6470 6473
6470 6474
6471 6472
6471 6473
6471 6474
6471 6475
6472 6473
6472 6474
6472 6475
6472 6476
6473 6474
6473 6475
6473 6476
6473 6477
6474 6475
6474 6476
6474 6477
6474 6478
6475 6476
6475 6477
6475 6478
6475 6479
6476 6477
6476 6478
6476 6479
6476 6480
6476 8534
6476 9664
6477 6478
6477 6479
6477 6480
6477 6481
6478 6479
6478 6480
6478 6482
6479 6480
6479 6481
6479 6483
6479 6824
6480 6481
6480 6482
6480 6484
6480 8155
6481 6482
6481 6484
6481 6485
6482 6484
6482 6485
6483 6484
6483 6485
6483 6486
6483 6487
6484 6485
6484 6486
6484 6487
6485 6486
6485 6487
6485 6488
6485 6489
6486 6487
6486 6488
6486 6489
6486 6490
6487 6488
6487 6489
6487 6490
6487 6491
6487 6873
6488 6489
6488 6490
6488 6492
6489 6490
6489 6491
6489 6492
6489 6493
6490 6491
6490 6492
6490 6493
6490 6494
6491 6492
6491 6493
6491 6494
6491 6495
6492 6493
6492 6494
6492 6495
6492 6496
6492 6662
6493 6494
6493 6495
6493 6496
6493 6497
6494 6495
6494 6496
6494 6497
6494 6498
6495 6496
6495 6497
6495 6498
6495 6499
6496 6497
6496 6498
6496 6499
6496 6500
6497 6498
6497 6499
6497 6500
6497 6501
6498 6499
6498 6500
6498 6501
6498 6502
6499 6500
6499 6503
6500 6501
6500 6502
6500 6504
6501 6502
6501 6503
6501 6504
6501 6505
6502 6503
6502 6504
6502 6505
6502 6506
6503 6507
6503 7711
6504 6505
6504 6506
6504 6507
6504 6508
6504 8701
6505 6506
6505 6507
6505 6508
6505 6509
6506 6507
6506 6508
6506 6509
6506 6510
6507 6508
6507 6509
6507 6510
6507 6511
6508 6509
6508 6510
6508 6511
6508 6512
6509 6510
6509 6511
6509 6512
6509 6513
6510 6511
6510 6512
6510 6514
6510 8050
6511 6512
6511 6513
6511 6514
6512 6513
6512 6514
6512 6516
6513 6514
6513 6515
6513 6516
6513 6517
6514 6515
6514 6517
6514 6518
6515 6517
6515 6518
6515 6519
6516 6517
6516 6518
6516 6519
6516 6520
6517 6518
6517 6519
6517 6520
6518 6519
6518 6520
6518 6521
6518 6522
6519 6520
6519 6521
6519 6523
6519 9798
6520 6521
6520 6522
6520 6523
6521 6522
6521 6523
6521 6524
6521 6525
6522 6524
6522 6525
6522 6526
6523 6524
6523 6526
6524 6525
6524 6526
6524 6527
6524 6528
6525 6526
6525 6527
6525 6528
6525 6529
6526 6527
6526 6528
6526 6529
6526 6530
6527 6528
6527 6529
6527 6531
6527 9055
6528 6530
6528 6531
6528 6532
6529 6530
6529 6531
6529 6532
6529 6533
6530 6531
6530 6532
6530 6534
6531 6533
6531 6534
6531 6535
6532 6533
6532 6534
6532 6535
6532 6536
6532 8861
6533 6534
6533 6537
6534 6535
6534 6536
6534 6537
6534 6538
6535 6536
6535 6537
6535 6538
6535 6539
6536 6537
6536 6538
6536 6539
6536 6540
6536 8733
6537 6538
6537 6540
6537 6541
6537 8181
6537 9121
6538 6539
6538 6540
6538 6541
6538 6542
6538 8280
6539 6540
6539 6541
6539 6542
6539 6543
6540 6541
6540 6542
6540 6543
6540 6544
6541 6542
6541 6543
6541 6544
6541 6545
6542 6543
6542 6544
6542 6545
6542 6546
6542 8933
6543 6544
6543 6545
6543 6546
6543 6547
6544 6545
6544 6546
6544 6547
6544 6704
6545 6548
6545 6999
6546 6547
6546 6548
6546 6549
6546 6550
6547 6548
6547 6549
6547 6550
6547 6551
6548 6549
6548 6550
6548 6551
6548 6552
6549 6550
6549 6551
6549 6552
6549 6553
6550 6551
6550 6552
6550 6553
6550 6554
6551 6552
6551 6553
6551 6554
6551 9911
6552 6554
6552 6555
6552 6556
6553 6555
6553 6556
6553 6557
6554 6555
6554 6557
6554 6558
6554 6602
6555 6556
6555 6557
6555 6558
6555 6559
6556 6557
6556 6558
6556 6559
6556 6560
6556 9068
6557 6558
6557 6559
6557 6560
6557 6561
6558 6559
6558 6560
6558 6562
6559 6560
6559 6561
6559 6562
6559 6563
6560 6561
6560 6562
6560 6563
6560 6564
6561 6562
6561 6563
6561 6564
6561 7107
6561 9478
6562 6563
6562 6564
6562 6565
6562 6566
6563 6564
6563 6566
6563 6567
6564 6565
6564 6566
6564 6567
6564 6568
6565 6566
6565 6568
6565 6569
6566 6567
6566 6568
6566 6569
6566 6570
6567 6568
6567 6569
6567 6570
6567 6571
6568 6569
6568 6570
6568 6571
6568 6572
6569 6570
6569 6571
6569 6572
6569 6573
6570 6571
6570 6572
6570 6573
6571 6572
6571 6573
6571 6574
6571 6575
6572 6573
6572 6574
6572 6575
6573 6575
6573 6576
6573 6577
6574 6575
6574 6576
6574 6577
6574 6578
6575 6576
6575 6578
6575 6579
6575 8307
6576 6577
6576 6578
6576 6579
6576 6580
6577 6578
6577 6579
6577 6580
6577 6581
6578 6579
6578 6580
6578 6581
6578 6582
6579 6580
6579 6581
6579 6582
6579 6583
6580 6581
6580 6582
6580 6583
6580 6584
6581 6582
6581 6583
6581 6584
6581 6585
6581 9875
6582 6583
6582 6585
6582 6586
6583 6584
6583 6585
6583 6586
6583 6587
6584 6585
6584 6586
6584 6587
6584 6588
6585 6586
6585 6587
6585 6588
6585 6589
6586 6587
6586 6588
6586 6589
6586 6590
6587 6588
6587 6589
6587 6590
6587 6591
6588 6589
6588 6590
6588 6591
6588 6592
6589 6591
6589 6592
6589 6593
6590 6591
6590 6592
6590 6593
6590 6594
6591 6592
6591 6593
6591 6594
6591 6595
6591 9236
6592 6593
6592 6595
6592 6596
6593 6594
6593 6596
6593 6597
6594 6595
6594 6596
6594 6597
6594 6598
6595 6596
6595 6598
6595 6599
6596 6597
6596 6598
6596 6599
6596 6600
6597 6598
6597 6599
6597 6600
6597 6601
6598 6599
6598 6600
6598 6601
6598 6602
6599 6600
6599 6601
6599 6603
6599 9879
6600 6601
6600 6602
6600 6603
6600 6604
6600 8982
6601 6602
6601 6603
6601 6604
6601 6605
6602 6603
6602 6604
6602 6606
6602 8883
6603 6604
6603 6605
6603 6606
6603 6607
6604 6605
6604 6606
6604 6607
6604 6608
6605 6606
6605 6607
6605 6608
6605 6609
6606 6607
6606 6608
6606 6609
6606 6610
6607 6608
6607 6609
6607 6610
6608 6609
6608 6612
6609 6610
6609 6611
6609 6612
6609 6613
6610 6611
6610 6614
6611 6612
6611 6614
6611 6615
6612 6613
6612 6614
6612 6615
6612 6616
6613 6614
6613 6615
6613 6616
6613 6617
6614 6615
6614 6616
6614 6618
6615 6617
6615 6618
6615 6619
6616 6617
6616 6618
6616 6619
6616 6620
6617 6618
6617 6621
6618 6619
6618 6620
6618 6621
6618 6622
6619 6620
6619 6621
6619 6622
6619 6623
6619 9313
6620 6621
6620 6622
6620 6623
6620 6624
6621 6622
6621 6623
6621 6624
6621 6625
6622 6623
6622 6624
6622 6625
6622 6626
6623 6624
6623 6625
6623 6627
6623 8437
6623 8179
6624 6625
6624 6626
6624 6627
6624 6628
6625 6626
6625 6627
6625 8320
6625 7022
6626 6627
6626 6628
6626 6630
6627 6628
6627 6629
6627 6630
6628 6629
6628 6630
6628 6631
6628 6632
6629 6630
6629 6631
6629 6632
6629 6633
6630 6631
6630 6632
6630 6633
6630 6634
6631 6632
6631 6633
6631 6634
6631 6635
6632 6633
6632 6634
6632 6635
6632 6636
6633 6635
6633 6636
6633 6637
6634 6636
6634 6638
6634 7160
6635 6636
6635 6637
6635 6638
6635 6639
6636 6637
6636 6638
6636 6639
6636 6640
6636 9298
6637 6638
6637 6639
6637 6640
6637 6641
6638 6641
6638 6642
6638 9195
6639 6640
6639 6641
6639 6642
6639 6643
6640 6641
6640 6642
6640 6643
6640 6644
6641 6642
6641 6643
6641 6644
6641 6645
6642 6643
6642 6645
6642 6646
6643 6644
6643 6645
6643 6646
6643 6647
6644 6645
6644 6646
6644 6647
6644 6648
6645 6646
6645 6647
6645 6648
6645 6649
6646 6647
6646 6648
6646 6649
6647 6648
6647 6649
6647 6650
6647 6651
6648 6649
6648 6650
6648 6651
6648 6652
6649 6650
6649 6651
6649 6652
6649 6653
6650 6651
6650 6652
6650 6653
6650 6654
6651 6652
6651 6653
6651 6654
6651 6655
6652 6653
6652 6654
6652 6655
6652 6656
6652 8255
6653 6654
6653 6655
6653 6656
6653 6657
6654 6655
6654 6656
6654 6658
6654 7707
6655 6656
6655 6657
6655 6658
6655 6659
6655 8832
6656 6658
6656 6659
6656 6660
6656 7581
6657 6658
6657 6659
6657 6661
6658 6659
6658 6660
6658 6662
6658 7071
6659 6660
6659 6662
6659 6663
6659 9071
6660 6661
6660 6662
6660 6663
6660 6664
6660 8010
6661 6663
6661 6664
6661 6665
6662 6663
6662 6664
6662 6666
6662 8600
6663 6664
6663 6666
6663 6667
6664 6665
6664 6666
6664 6667
6664 6668
6665 6666
6665 6667
6665 6668
6666 6667
6666 6668
6666 6669
6666 6670
6667 6668
6667 6669
6667 6670
6667 6671
6668 6669
6668 6670
6668 6671
6669 6670
6669 6671
6669 6672
6669 6673
6670 6671
6670 6672
6670 6673
6671 6672
6671 6673
6671 6674
6671 6675
6672 6673
6672 6674
6672 6675
6672 6676
6673 6674
6673 6675
6673 6676
6673 6677
6674 6675
6674 6676
6674 6677
6675 6676
6675 6677
6675 6678
6675 6679
6676 6677
6676 6678
6676 6680
6676 9229
6677 6678
6677 6679
6677 6680
6677 6681
6678 6679
6678 6680
6678 6681
6678 6682
6679 6680
6679 6681
6679 6682
6679 6683
6680 6681
6680 6682
6680 6683
6680 6684
6681 6682
6681 6683
6681 6684
6681 6685
6682 6683
6682 6684
6682 6686
6683 6684
6683 6686
6683 6687
6684 6685
6684 6686
6684 6687
6684 6688
6684 6855
6685 6686
6685 6687
6685 6688
6685 6689
6686 6687
6686 6688
6686 6689
6686 6690
6687 6688
6687 6690
6687 6691
6687 9461
6688 6689
6688 6691
6688 6692
6688 8637
6689 6690
6689 6691
6689 6692
6689 6693
6690 6691
6690 6692
6690 6694
6691 6692
6691 6694
6691 6695
6691 8698
6692 6693
6692 6694
6692 6695
6692 6696
6693 6694
6693 6695
6693 6696
6693 6697
6694 6695
6695 6696
6695 6697
6695 6698
6695 6699
6696 6697
6696 6698
6696 6699
6696 6700
6697 6698
6697 6699
6698 6700
6698 6701
6698 6702
6699 6700
6699 6701
6699 6702
6699 6703
6700 6701
6700 6703
6700 6803
6701 6702
6701 6703
6701 6704
6701 6705
6702 6703
6702 6705
6702 6706
6702 8474
6703 6704
6703 6705
6703 6706
6703 6707
6704 6705
6704 6706
6704 6708
6705 6706
6705 6708
6705 6709
6706 6707
6706 6708
6706 6710
6707 6708
6707 6709
6707 6710
6707 6711
6708 6709
6708 6711
6708 6712
6709 6710
6709 6711
6709 6712
6709 6713
6710 6711
6710 6712
6710 6713
6710 7070
6711 6712
6711 6714
6711 6715
6711 8985
6711 7894
6712 6713
6712 6714
6712 6716
6713 6715
6713 6716
6713 6717
6713 8956
6713 8240
6714 6716
6714 6717
6714 6718
6714 7965
6715 6716
6715 6717
6715 6718
6715 6719
6716 6717
6716 6718
6716 6719
6717 6718
6717 6719
6717 6721
6718 6721
6718 6722
6719 6720
6719 6721
6719 6722
6719 6723
6720 6721
6720 6723
6720 6724
6721 6722
6721 6723
6721 6724
6721 6725
6722 6723
6722 6724
6722 6725
6722 6726
6723 6724
6723 6725
6723 6726
6723 6727
6724 6725
6724 6726
6724 6727
6724 6728
6724 9416
6725 6726
6725 6728
6725 6729
6726 6727
6726 6728
6726 6729
6726 6730
6727 6728
6727 6729
6727 6730
6727 6731
6728 6729
6728 6730
6728 6731
6728 6732
6729 6730
6729 6731
6729 6732
6729 6733
6730 6731
6730 6732
6730 6733
6731 6732
6731 6733
6731 6734
6731 6735
6732 6733
6732 6735
6732 6736
6733 6734
6733 6735
6733 6736
6733 6737
6733 7692
6734 6735
6734 6736
6734 6737
6734 6738
6735 6736
6735 6737
6735 6738
6735 6739
6736 6737
6736 6738
6736 6739
6736 6740
6737 6738
6737 6739
6737 6740
6737 6741
6737 8990
6738 6741
6738 6742
6738 7884
6739 6740
6739 6741
6739 6742
6739 6743
6740 6741
6740 6742
6740 6743
6740 6744
6741 6742
6741 6743
6741 6744
6741 6745
6742 6743
6742 6744
6742 6746
6742 7326
6743 6744
6743 6745
6743 6746
6743 6747
6744 6745
6744 6746
6744 6748
6745 6746
6745 6747
6745 6748
6745 6749
6746 6747
6746 6748
6746 6749
6746 6750
6747 6748
6747 6749
6747 6750
6747 6751
6748 6749
6748 6750
6748 6751
6748 6752
6749 6750
6749 6751
6749 6753
6749 8350
6750 6751
6750 6752
6750 6753
6751 6752
6751 6753
6751 6754
6751 6755
6752 6753
6752 6754
6752 6756
6753 6754
6753 6756
6753 6757
6754 6755
6754 6757
6754 6758
6755 6756
6755 6757
6755 6758
6755 6759
6756 6758
6756 6759
6756 6760
6757 6758
6757 6760
6758 6759
6758 6760
6758 6761
6758 6762
6759 6760
6759 6761
6759 6762
6760 6761
6760 6762
6760 6764
6761 6762
6761 6763
6761 6765
6762 6763
6762 6764
6762 6765
6762 6766
6762 9680
6763 6764
6763 6765
6763 6767
6764 6765
6764 6766
6764 6767
6764 6768
6765 6767
6765 6768
6765 6769
6765 6828
6766 6767
6766 6768
6766 6769
6766 6770
6767 6768
6767 6769
6767 6770
6767 6771
6767 6871
6768 6769
6768 6770
6768 6771
6768 6772
6769 6770
6769 6771
6769 6772
6769 6773
6770 6771
6770 6772
6770 6773
6770 6774
6771 6772
6771 6773
6771 6774
6771 6775
6772 6773
6772 6774
6772 6775
6772 6776
6773 6774
6773 6775
6773 6776
6773 6777
6774 6775
6774 6776
6774 6777
6774 6778
6775 6776
6775 6777
6775 6778
6775 6779
6776 6777
6776 6778
6776 6779
6776 6780
6777 6778
6777 6779
6777 6780
6777 6781
6778 6779
6778 6782
6778 8721
6779 6781
6779 6782
6779 6783
6780 6781
6780 6782
6780 6783
6780 6784
6781 6782
6781 6783
6781 6784
6781 6785
6782 6783
6782 6784
6782 6785
6782 6786
6783 6784
6783 6785
6783 6786
6784 6785
6784 6786
6784 6787
6784 6788
6785 6786
6785 6788
6785 6789
6785 7984
6786 6787
6786 6788
6786 6789
6786 6790
6787 6788
6787 6789
6787 6790
6787 6791
6788 6789
6788 6790
6788 6792
6788 7245
6789 6790
6789 6791
6789 6792
6789 6793
6790 6791
6790 6792
6790 6793
6790 6794
6790 7184
6791 6792
6791 6793
6791 6794
6791 6795
6792 6795
6792 6796
6793 6795
6793 6796
6793 6797
6793 8658
6794 6795
6794 6796
6794 6797
6794 6798
6795 6796
6795 6797
6795 6798
6795 6799
6795 8807
6796 6797
6796 6798
6796 6799
6796 6800
6797 6798
6797 6800
6797 6801
6797 9770
6798 6799
6798 6800
6798 6801
6798 6802
6799 6800
6799 6801
6799 6802
6799 6803
6800 6801
6800 6802
6800 6803
6800 6804
6801 6802
6801 6803
6801 6804
6801 6805
6802 6803
6802 6805
6802 6806
6802 7863
6803 6804
6803 6806
6803 6943
6804 6805
6804 6806
6804 6807
6804 6808
6805 6806
6805 6807
6805 6808
6805 6809
6806 6807
6806 6808
6806 6809
6806 6810
6807 6808
6807 6809
6807 6810
6807 6811
6808 6809
6808 6810
6808 6811
6808 6812
6809 6810
6809 6811
6809 6813
6810 6812
6810 6813
6810 6814
6811 6812
6811 6814
6811 6815
6811 6922
6812 6813
6812 6815
6812 9736
6813 6814
6813 6815
6813 6816
6813 6817
6813 7938
6814 6815
6814 6816
6814 6817
6814 6818
6815 6817
6815 6818
6815 6819
6816 6817
6816 6818
6816 6819
6816 6820
6817 6818
6817 6819
6817 6820
6817 6821
6818 6819
6818 6820
6818 6821
6818 6822
6819 6821
6819 6822
6819 6823
6819 9884
6820 6821
6820 6823
6820 6824
6821 6822
6821 6823
6821 6824
6821 6825
6822 6823
6822 6824
6822 6825
6822 6826
6823 6824
6823 6826
6823 6827
6823 7118
6824 6825
6824 6826
6824 6827
6824 6828
6824 8688
6825 6826
6825 6827
6825 6828
6825 6829
6826 6827
6826 6828
6826 6829
6826 6830
6826 8559
6827 6828
6827 6829
6827 6830
6827 6831
6828 6829
6828 6830
6828 6831
6828 6832
6829 6830
6829 6831
6829 6832
6829 6833
6830 6831
6830 6832
6830 6833
6830 6834
6831 6832
6831 6833
6831 6834
6831 6835
6832 6833
6832 6834
6832 6835
6832 6836
6833 6834
6833 6835
6833 6836
6833 6837
6834 6835
6834 6836
6834 6837
6834 6838
6835 6837
6835 6838
6835 6839
6836 6837
6836 6838
6836 6839
6836 6840
6837 6838
6837 6839
6837 6841
6838 6839
6838 6840
6838 6841
6838 6842
6838 7678
6839 6840
6839 6841
6839 6842
6839 6843
6839 6862
6840 6841
6840 6842
6840 6843
6840 6844
6841 6842
6841 6843
6841 6844
6841 6845
6842 6843
6842 6844
6842 6845
6842 6846
6843 6844
6843 6845
6843 6846
6843 6847
6844 6845
6844 6846
6844 6847
6844 6848
6845 6846
6845 6847
6845 6848
6845 6849
6846 6847
6846 6849
6846 6850
6846 7831
6847 6849
6847 6850
6847 6851
6848 6849
6848 6850
6848 6851
6848 6852
6849 6850
6849 6851
6849 6852
6849 6853
6850 6851
6850 6852
6850 6854
6851 6852
6851 6853
6851 6854
6851 6855
6852 6853
6852 6854
6852 6856
6852 8071
6853 6854
6853 6855
6853 6856
6853 6857
6854 6855
6854 6857
6854 6858
6855 6856
6855 6857
6855 6859
6856 6857
6856 6859
6856 6860
6856 8806
6857 6858
6857 6859
6857 6860
6857 6861
6858 6859
6858 6860
6858 6861
6858 6862
6859 6860
6859 6861
6859 6862
6859 6863
6860 6861
6860 6862
6860 6863
6860 6864
6861 6862
6861 6863
6861 6864
6861 6865
6862 6864
6862 6865
6863 6864
6863 6865
6863 6866
6863 6867
6864 6865
6864 6866
6864 6867
6864 6868
6865 6866
6865 6867
6865 6868
6865 6869
6866 6867
6866 6868
6866 6869
6866 6870
6867 6868
6867 6869
6867 6870
6867 6871
6867 8794
6868 6869
6868 6871
6868 6872
6869 6870
6869 6871
6869 6872
6869 6873
6870 6871
6870 6872
6870 6873
6870 6874
6871 6872
6871 6873
6871 6874
6872 6873
6872 6874
6872 6875
6872 6876
6873 6874
6873 6875
6873 6876
6874 6875
6874 6876
6874 6877
6874 6878
6874 9816
6875 6876
6875 6877
6875 6879
6876 6877
6876 6878
6876 6879
6876 6880
6877 6878
6877 6879
6877 6880
6877 6881
6877 9302
6878 6879
6878 6880
6878 6881
6878 6882
6879 6880
6879 6881
6879 6882
6879 6883
6880 6881
6880 6882
6880 6883
6880 6884
6880 7810
6881 6882
6881 6883
6881 6884
6881 6885
6882 6883
6882 6884
6882 6885
6882 6886
6883 6884
6883 6885
6883 6886
6883 6887
6883 9925
6884 6885
6884 6886
6884 6887
6884 6888
6885 6886
6885 6887
6885 6888
6885 6889
6886 6887
6886 6888
6886 6890
6886 8994
6887 6889
6887 6890
6887 6891
6887 8397
6888 6889
6888 6890
6888 6891
6888 6892
6889 6890
6889 6892
6889 6893
6890 6891
6890 6893
6890 6894
6891 6892
6891 6893
6891 6894
6891 6895
6892 6893
6892 6894
6892 6895
6892 6896
6893 6895
6893 6896
6893 6897
6893 7686
6894 6895
6894 6896
6894 6897
6894 6898
6895 6896
6895 6897
6895 6898
6895 6899
6896 6897
6896 6898
6896 6899
6896 6900
6897 6898
6897 6900
6897 6901
6897 8754
6898 6899
6898 6900
6899 6900
6899 6901
6899 6902
6899 6903
6900 6902
6900 6903
6900 6904
6901 6903
6901 6904
6901 6905
6902 6903
6902 6904
6902 6905
6902 6906
6903 6904
6903 6906
6903 6907
6903 7218
6904 6905
6904 6907
6904 6908
6904 7009
6905 6906
6905 6907
6905 6908
6905 6909
6906 6908
6906 6909
6906 6910
6907 6909
6907 6910
6907 6911
6908 6909
6908 6910
6908 6911
6908 6912
6909 6910
6909 6911
6909 6912
6909 6913
6910 6911
6910 6912
6910 6913
6910 6914
6911 6912
6911 6913
6911 6914
6911 6915
6911 9631
6912 6914
6912 6915
6912 6916
6912 8283
6913 6914
6913 6915
6913 6916
6913 6917
6914 6915
6914 6916
6914 6917
6914 6918
6914 7452
6915 6917
6915 6918
6915 6919
6916 6918
6916 6919
6917 6918
6917 6919
6917 6920
6917 6921
6918 6919
6918 6921
6918 6922
6919 6920
6919 6921
6919 6922
6919 6923
6919 8948
6920 6921
6920 6922
6920 6924
6921 6922
6921 6923
6921 6924
6921 6925
6922 6923
6922 6924
6922 6925
6923 6924
6923 6925
6923 6926
6923 6927
6924 6925
6924 6926
6924 6927
6924 6928
6924 7690
6925 6926
6925 6927
6925 6928
6925 6929
6926 6927
6926 6928
6926 6929
6926 6930
6927 6928
6927 6929
6927 6930
6927 6931
6927 8270
6928 6929
6928 6930
6928 6931
6928 6932
6929 6930
6929 6931
6929 6932
6929 6933
6930 6931
6930 6933
6930 6934
6930 7003
6931 6932
6931 6933
6931 6934
6931 6935
6932 6933
6932 6934
6932 6936
6933 6935
6933 6936
6933 6937
6933 9061
6933 9347
6934 6938
6934 7414
6935 6936
6935 6937
6935 6938
6935 6939
6936 6937
6936 6938
6936 6939
6936 6940
6937 6938
6937 6939
6937 6940
6937 6941
6938 6939
6938 6940
6938 6941
6938 6942
6939 6940
6939 6941
6939 6942
6939 6943
6939 8268
6940 6942
6940 6943
6940 6944
6940 7333
6941 6942
6941 6943
6941 6944
6941 6945
6942 6943
6942 6944
6942 6945
6942 6946
6943 6944
6943 6945
6943 6946
6943 6947
6944 6945
6944 6946
6944 6947
6944 6948
6944 9100
6945 6946
6945 6947
6945 6948
6945 6949
6946 6947
6946 6948
6946 6950
6947 6948
6947 6949
6947 6950
6947 6951
6948 6949
6948 6950
6948 6951
6948 6952
6949 6950
6949 6951
6949 6952
6949 6953
6950 6951
6950 6952
6950 6953
6950 6954
6951 6953
6951 6954
6951 6955
6951 8439
6952 6953
6952 6954
6952 6955
6952 6956
6953 6954
6953 6955
6953 6956
6953 6957
6953 6987
6954 6955
6954 6956
6954 6957
6954 6958
6955 6956
6955 6957
6955 6958
6955 6959
6956 6957
6956 6958
6956 6959
6956 8473
6956 7782
6957 6958
6957 6959
6957 6960
6957 6961
6958 6959
6958 6960
6958 6962
6959 6960
6959 6961
6959 6962
6959 6963
6960 6961
6960 6962
6960 6963
6960 6964
6961 6962
6961 6963
6961 6964
6961 6965
6962 6963
6962 6964
6962 6965
6962 6966
6963 6965
6963 6966
6963 6967
6963 7764
6964 6965
6964 6966
6964 6967
6964 6968
6965 6966
6965 6967
6965 6968
6965 6969
6966 6968
6966 6969
6966 6970
6967 6968
6967 6969
6967 6970
6968 6970
6968 6971
6968 6972
6968 8784
6969 6970
6969 6971
6969 6972
6969 6973
6970 6972
6970 6974
6970 7382
6971 6972
6971 6973
6971 6974
6971 6975
6972 6973
6972 6974
6972 6975
6972 6976
6973 6974
6973 6975
6973 6976
6973 6977
6974 6975
6974 6977
6974 6978
6974 7892
6975 6976
6975 6978
6975 6979
6976 6977
6976 6978
6976 6979
6976 6980
6976 7102
6977 6978
6977 6979
6977 6981
6978 6979
6978 6981
6978 6982
6978 7950
6979 6980
6979 6981
6979 6982
6979 6983
6980 6983
6980 6984
6980 9469
6981 6982
6981 6983
6981 6984
6981 6985
6981 9218
6982 6983
6982 6984
6982 6986
6983 6984
6983 6985
6983 6986
6983 6987
6984 6985
6984 6986
6984 6987
6984 6988
6985 6986
6985 6988
6985 6989
6986 6987
6986 6988
6986 6989
6987 6989
6987 6990
6987 6991
6988 6989
6988 6990
6988 6991
6989 6990
6989 6991
6989 6992
6989 6993
6989 7377
6990 6991
6990 6992
6990 6993
6990 6994
6990 9665
6991 6992
6991 6993
6991 6994
6991 6995
6992 6993
6992 6994
6992 6995
6992 6996
6993 6994
6993 6995
6993 6997
6993 9626
6994 6995
6994 6996
6994 6997
6994 6998
6995 6996
6995 6997
6995 6998
6995 6999
6996 6997
6996 6998
6996 6999
6997 6998
6997 6999
6997 7000
6997 7001
6997 7777
6998 6999
6998 7001
6998 7002
6999 7000
6999 7001
6999 7002
6999 7003
7000 7001
7000 7002
7000 7004
7001 7002
7001 7003
7001 7004
7001 7005
7001 9342
7001 8309
7002 7003
7002 7004
7002 7005
7002 7006
7003 7004
7003 7005
7003 7007
7003 9559
7004 7005
7004 7006
7004 7007
7004 7008
7005 7006
7005 7007
7005 7008
7005 7009
7005 7584
7006 7007
7006 7008
7006 7009
7006 7010
7007 7008
7007 7009
7007 7010
7007 7011
7008 7009
7008 7010
7008 7011
7008 7012
7009 7010
7009 7011
7009 7012
7009 7013
7010 7011
7010 7012
7010 7013
7010 7014
7011 7012
7011 7013
7011 7014
7012 7013
7012 7015
7012 7016
7013 7014
7013 7015
7013 7016
7014 7015
7014 7016
7014 7017
7014 7018
7015 7016
7015 7017
7015 7018
7015 7019
7016 7017
7016 7018
7016 7019
7016 7020
7017 7018
7017 7019
7017 7020
7017 7021
7018 7019
7018 7020
7018 7021
7018 7022
7019 7020
7019 7021
7019 7022
7019 7023
7020 7021
7020 7022
7020 7023
7020 7024
7021 7022
7021 7023
7021 7024
7021 7025
7022 7023
7022 7024
7022 7025
7022 7026
7023 7024
7023 7026
7023 7027
7024 7025
7024 7026
7024 7028
7025 7026
7025 7027
7025 7028
7025 7029
7026 7027
7026 7028
7026 7029
7026 7030
7026 7395
7027 7028
7027 7029
7027 7030
7027 7031
7028 7029
7028 7030
7028 7031
7028 7032
7029 7030
7029 7031
7029 7033
7030 7031
7030 7032
7030 7033
7030 7034
7031 7032
7031 7033
7031 7034
7031 7035
7032 7033
7032 7034
7032 7035
7032 7036
7033 7034
7033 7035
7033 7036
7033 7037
7034 7035
7034 7036
7034 7038
7035 7036
7035 7037
7035 7038
7035 7039
7036 7037
7036 7038
7036 7039
7036 7040
7036 7552
7037 7038
7037 7039
7037 7040
7037 7041
7038 7039
7038 7040
7038 7041
7038 7042
7039 7040
7039 7041
7039 7042
7039 7043
7040 7041
7040 7042
7040 7043
7040 7044
7041 7042
7041 7043
7041 7044
7041 7045
7042 7043
7042 7045
7043 7045
7043 7046
7044 7045
7044 7046
7044 7047
7044 7048
7045 7046
7045 7047
7045 7048
7045 7049
7046 7047
7046 7048
7046 7049
7046 7050
7047 7048
7047 7049
7047 7050
7048 7049
7048 7050
7048 7051
7048 7052
7049 7051
7049 7052
7049 7053
7050 7051
7050 7052
7050 7053
7050 7054
7051 7052
7051 7053
7051 7055
7052 7053
7052 7054
7052 7055
7052 7056
7053 7054
7053 7055
7053 7056
7053 7057
7054 7055
7054 7056
7054 7057
7054 7058
7055 7056
7055 7057
7055 7058
7055 7059
7056 7057
7056 7058
7056 7059
7056 7060
7057 7058
7057 7059
7057 7060
7057 7061
7058 7059
7058 7060
7058 7061
7058 7062
7059 7060
7059 7061
7059 7062
7059 7063
7060 7061
7060 7062
7060 7063
7060 7064
7061 7062
7061 7063
7061 7064
7061 7065
7062 7063
7062 7064
7062 7065
7062 7066
7063 7064
7063 7066
7063 7067
7063 9682
7064 7066
7064 7067
7064 7068
7064 7331
7065 7067
7065 7068
7065 7069
7065 7742
7066 7067
7066 7068
7066 7069
7066 7070
7067 7068
7067 7069
7067 7070
7067 7071
7068 7069
7068 7070
7068 7071
7069 7070
7069 7071
7069 7072
7069 7073
7070 7071
7070 7072
7070 7073
7070 7074
7071 7072
7071 7073
7071 7075
7072 7073
7072 7074
7072 7075
7072 7076
7073 7074
7073 7075
7073 7076
7073 7077
7074 7075
7074 7076
7074 7077
7074 7078
7075 7076
7075 7077
7075 7078
7075 7079
7076 7077
7076 7078
7076 7079
7077 7079
7077 7080
7077 7081
7078 7080
7078 7082
7078 7534
7079 7080
7079 7082
7079 7083
7079 8162
7080 7081
7080 7082
7080 7083
7080 7084
7080 8408
7080 7982
7081 7082
7081 7083
7081 7084
7081 7085
7082 7083
7082 7084
7082 7085
7082 7086
7083 7084
7083 7085
7083 7086
7083 7087
7084 7085
7084 7086
7084 7087
7085 7087
7085 7088
7085 7089
7085 8755
7086 7088
7086 7090
7086 7985
7087 7088
7087 7089
7087 7090
7087 7091
7088 7089
7088 7090
7088 7091
7088 7092
7089 7090
7089 7092
7089 7093
7089 8973
7089 9924
7090 7092
7090 7093
7090 7094
7091 7092
7091 7093
7091 7094
7091 7095
7092 7093
7092 7094
7092 7095
7092 7096
7093 7094
7093 7095
7093 7096
7093 7097
7094 7095
7094 7096
7094 7097
7094 7098
7095 7096
7095 7097
7095 7098
7095 7099
7096 7097
7096 7098
7096 7099
7096 7100
7097 7098
7097 7101
7098 7099
7098 7100
7098 7101
7098 7102
7098 9674
7099 7100
7099 7102
7099 7103
7100 7101
7100 7102
7100 7103
7100 7104
7101 7102
7101 7103
7101 7104
7102 7104
7102 7105
7102 7106
7103 7104
7103 7105
7103 7107
7104 7105
7104 7106
7104 7107
7104 7108
7105 7106
7105 7107
7105 7108
7106 7107
7106 7108
7106 7109
7106 9510
7107 7108
7107 7109
7107 7110
7107 7111
7108 7109
7108 7110
7108 7111
7108 7112
7109 7110
7109 7111
7109 7112
7109 7113
7110 7111
7110 7113
7110 7114
7111 7112
7111 7113
7111 7114
7111 7115
7112 7113
7112 7114
7112 7115
7112 7116
7113 7115
7113 7116
7113 7117
7114 7115
7114 7116
7114 7117
7114 7118
7114 8015
7115 7116
7115 7117
7115 7118
7115 7119
7116 7117
7116 7118
7116 7119
7116 7120
7117 7118
7117 7119
7117 7120
7117 7121
7118 7119
7118 7120
7118 7121
7118 7122
7119 7120
7119 7121
7119 7122
7119 7123
7120 7121
7120 7122
7120 7123
7120 7124
7121 7122
7121 7123
7121 7124
7121 7125
7122 7123
7122 7124
7122 7125
7122 7126
7123 7124
7123 7125
7123 7126
7123 7127
7124 7125
7124 7126
7124 7127
7124 7128
7125 7126
7125 7127
7125 7128
7125 7129
7126 7127
7126 7128
7126 7130
7127 7128
7127 7129
7127 7130
7127 7131
7128 7129
7128 7130
7128 7131
7128 7132
7129 7130
7129 7131
7129 7132
7129 7133
7130 7131
7130 7132
7130 7134
7130 9186
7131 7133
7131 7134
7131 7135
7131 9687
7132 7133
7132 7134
7132 7135
7132 7136
7133 7134
7133 7135
7133 7136
7133 7137
7134 7135
7134 7136
7134 7137
7134 7138
7135 7136
7135 7137
7135 7138
7135 7139
7136 7137
7136 7138
7136 7139
7136 7140
7137 7138
7137 7139
7137 7140
7137 7141
7138 7139
7138 7140
7138 7141
7138 7142
7139 7140
7139 7141
7139 7142
7140 7141
7140 7142
7140 7143
7140 7144
7141 7142
7141 7143
7141 7144
7141 7145
7142 7143
7142 7144
7142 7145
7142 7146
7143 7144
7143 7145
7143 7146
7144 7146
7144 7147
7144 7148
7145 7147
7145 7148
7145 7149
7146 7147
7146 7149
7146 7150
7147 7148
7147 7149
7147 7150
7147 7151
7148 7149
7148 7150
7148 7151
7148 7152
7149 7150
7149 7151
7149 7152
7149 7153
7150 7151
7150 7152
7150 7153
7150 7154
7151 7152
7151 7153
7151 7155
7152 7153
7152 7154
7152 7155
7152 7156
7153 7154
7153 7155
7153 7156
7153 7157
7154 7155
7154 7156
7154 7157
7154 7158
7155 7156
7155 7158
7155 7159
7156 7157
7156 7158
7156 7160
7157 7158
7157 7160
7158 7159
7158 7160
7158 7161
7158 7162
7159 7160
7159 7161
7159 7162
7159 7163
7160 7161
7160 7162
7160 7163
7160 7164
7161 7162
7161 7163
7161 7165
7162 7163
7162 7164
7162 7165
7162 7166
7162 8898
7163 7164
7163 7165
7163 7166
7163 7167
7164 7165
7164 7166
7164 7167
7164 7168
7164 8628
7165 7166
7165 7167
7165 7168
7165 7169
7166 7167
7166 7168
7166 7169
7166 7170
7167 7168
7167 7169
7167 7170
7167 7171
7168 7169
7168 7170
7168 7171
7168 7172
7169 7171
7169 7172
7169 7173
7170 7171
7170 7172
7170 7173
7170 7174
7171 7173
7171 7174
7171 7175
7171 7533
7171 7967
7172 7173
7172 7174
7172 7175
7172 7176
7173 7174
7173 7177
7174 7175
7174 7176
7174 7178
7175 7176
7175 7177
7175 7178
7176 7177
7176 7178
7176 7179
7177 7178
7177 7179
7177 7180
7177 7181
7178 7179
7178 7180
7178 7181
7179 7181
7179 7182
7179 7183
7179 7613
7180 7181
7180 7182
7180 7184
7180 9390
7180 8450
7181 7182
7181 7183
7181 7184
7181 7185
7182 7183
7182 7184
7182 7185
7182 7186
7183 7184
7183 7185
7183 7186
7183 7187
7183 8568
7183 8498
7184 7185
7184 7186
7184 7187
7185 7186
7185 7187
7185 7188
7185 7189
7186 7187
7186 7188
7186 7189
7186 7190
7187 7188
7187 7189
7187 7190
7187 7191
7188 7189
7188 7190
7188 7191
7188 7192
7189 7190
7189 7191
7189 7192
7189 7193
7190 7191
7190 7192
7190 7193
7190 7194
7191 7192
7191 7193
7191 7194
7191 7195
7192 7193
7192 7194
7192 7195
7192 7196
7193 7194
7193 7195
7193 7196
7193 7197
7193 9865
7194 7195
7194 7196
7194 7198
7195 7196
7195 7197
7195 7198
7195 7199
7195 9828
7196 7197
7196 7198
7196 7199
7196 7200
7197 7198
7197 7199
7197 7200
7197 7201
7198 7199
7198 7200
7198 7202
7198 8936
7199 7200
7199 7201
7199 7202
7199 7203
7200 7201
7200 7202
7200 7203
7200 7204
7201 7202
7201 7203
7201 7204
7201 7205
7202 7203
7202 7204
7202 7205
7203 7204
7203 7206
7203 7207
7203 9234
7204 7205
7204 7207
7204 7208
7204 7873
7205 7206
7205 7207
7205 7208
7205 7209
7206 7207
7206 7208
7206 7210
7207 7209
7207 7210
7207 7211
7208 7209
7208 7210
7208 7212
7209 7210
7209 7211
7209 7212
7209 7213
7210 7212
7210 7213
7210 7214
7211 7212
7211 7213
7211 7214
7211 7215
7212 7213
7212 7214
7212 7215
7212 7216
7213 7214
7213 7215
7213 7216
7213 7217
7214 7215
7214 7216
7214 7217
7214 7218
7215 7216
7215 7218
7215 7219
7215 7495
7216 7217
7216 7218
7217 7218
7217 7219
7217 7221
7217 7643
7218 7219
7218 7220
7218 7222
7218 7434
7219 7221
7219 7222
7219 7223
7219 9665
7220 7221
7220 7222
7220 7223
7220 7224
7221 7222
7221 7223
7221 7224
7221 7225
7222 7223
7222 7224
7222 7226
7223 7225
7223 7226
7223 7227
7224 7225
7224 7226
7224 7227
7224 7228
7225 7226
7225 7227
7225 7228
7225 7229
7226 7227
7226 7228
7226 7229
7226 7230
7227 7229
7227 7230
7227 9320
7227 7353
7228 7229
7228 7230
7228 7231
7228 7232
7228 8777
7229 7231
7229 7232
7229 7233
7230 7231
7230 7232
7230 7233
7230 7234
7231 7233
7231 7234
7231 7235
7231 7391
7231 8546
7232 7233
7232 7234
7232 7235
7232 7236
7233 7234
7233 7235
7233 7236
7234 7235
7234 7236
7234 7237
7234 7238
7235 7236
7235 7238
7235 7239
7236 7237
7236 7238
7236 7239
7236 7240
7237 7238
7237 7239
7237 7240
7237 7241
7238 7239
7238 7240
7238 7241
7238 7242
7239 7240
7239 7242
7240 7241
7240 7242
7240 7243
7240 7244
7241 7242
7241 7243
7241 7244
7241 7245
7242 7243
7242 7244
7242 7245
7242 7246
7243 7244
7243 7245
7243 7247
7244 7245
7244 7246
7244 7247
7244 7248
7245 7246
7245 7247
7245 7248
7245 7249
7246 7247
7246 7248
7246 7250
7246 9230
7247 7248
7247 7249
7247 7250
7247 7251
7248 7249
7248 7250
7248 7251
7248 7252
7249 7250
7249 7251
7249 7252
7249 7253
7250 7251
7250 7252
7250 7253
7251 7252
7251 7253
7251 7254
7251 7255
7251 9181
7252 7253
7252 7254
7252 7255
7252 7256
7253 7254
7253 7255
7253 7256
7253 7257
7253 7408
7254 7256
7254 7257
7254 7258
7254 9061
7255 7256
7255 7257
7255 7258
7255 7259
7256 7257
7256 7258
7256 7259
7257 7258
7257 7259
7257 7260
7257 7261
7258 7259
7258 7260
7258 7261
7258 7262
7259 7260
7259 7261
7259 7262
7260 7261
7260 7262
7260 7264
7261 7262
7261 7263
7261 7264
7261 7265
7262 7263
7262 7264
7262 7265
7262 7266
7263 7265
7263 7266
7263 7267
7264 7265
7264 7266
7264 7267
7264 7268
7265 7266
7265 7267
7265 7268
7265 7269
7266 7267
7266 7268
7266 7269
7266 7270
7267 7268
7267 7269
7267 7270
7267 7271
7268 7269
7268 7270
7268 7271
7268 7272
7269 7270
7269 7271
7269 7272
7269 7273
7270 7273
7270 7274
7271 7272
7271 7273
7271 7274
7271 7275
7272 7273
7272 7274
7272 7275
7272 7276
7273 7274
7273 7275
7273 7276
7273 7277
7274 7276
7274 7277
7275 7277
7275 7278
7275 7279
7276 7277
7276 7278
7276 7279
7276 7280
7277 7278
7277 7279
7277 7280
7277 7281
7278 7279
7278 7280
7278 7281
7278 7282
7279 7280
7279 7282
7279 7283
7280 7282
7280 7283
7280 7284
7281 7282
7281 7283
7281 7284
7282 7283
7282 7284
7282 7285
7282 7286
7283 7285
7283 7286
7283 7287
7283 9509
7284 7285
7284 7286
7284 7287
7284 7288
7285 7286
7285 7287
7285 7288
7285 7289
7286 7287
7286 7288
7286 7290
7287 7288
7287 7289
7287 7290
7287 7291
7288 7289
7288 7290
7288 7291
7288 7292
7288 7711
7288 9641
7289 7290
7289 7291
7289 7292
7290 7291
7290 7292
7290 7293
7290 7294
7291 7292
7291 7293
7291 7294
7292 7293
7292 7295
7292 7296
7293 7294
7293 7295
7293 7296
7293 7297
7294 7295
7294 7297
7294 7298
7295 7296
7295 7297
7295 7298
7295 7299
7296 7297
7296 7298
7296 7299
7296 7300
7297 7298
7297 7299
7297 7300
7297 7301
7298 7299
7298 7300
7298 7301
7298 9577
7299 7300
7299 7301
7299 7302
7299 7303
7300 7301
7300 7302
7300 7303
7301 7302
7301 7303
7301 7305
7301 8767
7302 7303
7302 7304
7302 7305
7302 7306
7303 7304
7303 7305
7303 7306
7303 7307
7304 7305
7304 7306
7304 7307
7305 7306
7305 7307
7305 7308
7305 7309
7306 7307
7306 7308
7306 7309
7306 8918
7307 7308
7307 7309
7307 7310
7307 7311
7307 9536
7308 7309
7308 7310
7308 7311
7308 7312
7308 9603
7309 7310
7309 7311
7309 7312
7309 7313
7310 7311
7310 7312
7310 7314
7311 7312
7311 7313
7311 7314
7311 7315
7312 7313
7312 7314
7312 7315
7312 7316
7313 7314
7313 7315
7313 7316
7313 7317
7313 8088
7313 9591
7314 7315
7314 7316
7314 7317
7314 7318
7314 9234
7315 7316
7315 7317
7315 7318
7315 7319
7316 7317
7316 7318
7316 7319
7316 7320
7317 7318
7317 7319
7317 7320
7317 7321
7318 7319
7318 7320
7318 7321
7318 7322
7319 7320
7319 7321
7319 7322
7320 7321
7320 7322
7320 7323
7320 7324
7321 7322
7321 7323
7321 7324
7321 7325
7322 7323
7322 7324
7322 7325
7322 7326
7323 7324
7323 7325
7323 7327
7323 9180
7324 7325
7324 7326
7324 7327
7324 7328
7325 7326
7325 7327
7325 7328
7325 7329
7326 7327
7326 7328
7326 7329
7326 7330
7327 7328
7327 7330
7327 7331
7328 7329
7328 7330
7328 7331
7328 7332
7329 7330
7329 7331
7329 7332
7329 7333
7330 7331
7330 7332
7330 7333
7330 7334
7331 7332
7331 7333
7331 7334
7331 7335
7332 7334
7332 7335
7332 7336
7333 7334
7333 7335
7333 7337
7334 7336
7334 7337
7334 7338
7334 8812
7335 7336
7335 7337
7335 7338
7335 7339
7336 7337
7336 7338
7336 7339
7336 7340
7337 7338
7337 7339
7337 7340
7337 7341
7338 7339
7338 7340
7338 7342
7338 7708
7339 7340
7339 7342
7339 7343
7340 7341
7340 7342
7340 7343
7340 7344
7341 7343
7341 7344
7341 7345
7342 7343
7342 7344
7342 7345
7342 7346
7342 9959
7342 7745
7343 7344
7343 7345
7343 7346
7343 7347
7344 7345
7344 7346
7344 7347
7344 7348
7345 7346
7345 7347
7345 7348
7345 7349
7346 7347
7346 7348
7346 7350
7347 7348
7347 7349
7347 7350
7347 7351
7348 7349
7348 7350
7348 7351
7348 7352
7349 7350
7349 7352
7349 7353
7350 7351
7350 7352
7350 7353
7350 7354
7351 7352
7351 7353
7351 7354
7351 7355
7352 7353
7352 7354
7352 7355
7352 7356
7353 7355
7353 7356
7353 7357
7354 7355
7354 7356
7354 7357
7354 7358
7354 8613
7355 7356
7355 7358
7355 7648
7356 7357
7356 7359
7356 7360
7357 7358
7357 7359
7357 7360
7357 7361
7358 7359
7358 7360
7358 7361
7358 7362
7359 7360
7359 7361
7359 7362
7359 7363
7360 7361
7360 7362
7360 7363
7360 7364
7361 7362
7361 7363
7361 7364
7361 7365
7362 7363
7362 7364
7362 7365
7362 7366
7363 7364
7363 7365
7363 7366
7363 7367
7364 7365
7364 7366
7364 7367
7364 7368
7364 9261
7365 7366
7365 7367
7365 7368
7365 7369
7366 7367
7366 7369
7366 7370
7367 7368
7367 7369
7367 7370
7367 7371
7368 7369
7368 7370
7368 7371
7368 7372
7368 9484
7369 7370
7369 7372
7369 7373
7370 7371
7370 7372
7370 7373
7370 7374
7371 7372
7371 7373
7371 7374
7371 7375
7372 7373
7372 7374
7372 7375
7372 7376
7372 8125
7373 7374
7373 7375
7373 7376
7373 7377
7374 7375
7374 7376
7374 7377
7374 7378
7375 7376
7375 7377
7375 7378
7375 7379
7376 7377
7376 7378
7376 7379
7376 7380
7377 7378
7377 7379
7378 7379
7378 7380
7378 7381
7378 7382
7379 7380
7379 7381
7379 7382
7379 7383
7380 7381
7380 7382
7380 7383
7380 7384
7381 7383
7381 7384
7381 7385
7382 7383
7382 7384
7382 7385
7382 7386
7383 7385
7383 7386
7383 7387
7384 7385
7384 7386
7384 7387
7384 7388
7385 7386
7385 7387
7385 7389
7385 7738
7386 7387
7386 7388
7386 7389
7386 7390
7387 7388
7387 7389
7387 7390
7387 7391
7388 7389
7388 7390
7388 7391
7388 7392
7389 7390
7389 7391
7389 7392
7389 7393
7390 7391
7390 7392
7390 7394
7390 7397
7391 7392
7391 7393
7391 7394
7391 7395
7392 7393
7392 7394
7392 7395
7392 7396
7393 7394
7393 7395
7393 7397
7393 9449
7394 7396
7394 7397
7394 7398
7395 7396
7395 7397
7395 7399
7396 7397
7396 7398
7396 7399
7396 7400
7397 7398
7397 7399
7397 7400
7397 7401
7398 7399
7398 7400
7398 7401
7398 7402
7399 7400
7399 7401
7399 7402
7399 7403
7400 7402
7400 7404
7400 8865
7400 8551
7401 7402
7401 7403
7401 7404
7401 7405
7402 7403
7402 7404
7402 7406
7403 7404
7403 7405
7403 7406
7403 7407
7404 7407
7404 7408
7405 7406
7405 7407
7405 7408
7405 7409
7406 7407
7406 7408
7406 7409
7406 7410
7407 7408
7407 7409
7407 7410
7407 7411
7408 7410
7408 7412
7409 7410
7409 7411
7409 7412
7409 7413
7410 7411
7410 7412
7410 7413
7410 7414
7411 7412
7411 7413
7411 7414
7411 7415
7412 7413
7412 7414
7412 7416
7413 7414
7413 7415
7413 7416
7414 7415
7414 7416
7414 7417
7414 7418
7415 7416
7415 7417
7415 7418
7415 7419
7416 7417
7416 7418
7416 7419
7416 7420
7417 7418
7417 7419
7417 7420
7417 7421
7418 7419
7418 7420
7418 7421
7418 8402
7419 7420
7419 7422
7419 7423
7419 7425
7420 7421
7420 7422
7420 7423
7420 7424
7421 7422
7421 7423
7421 7424
7421 7425
7422 7423
7422 7425
7422 7426
7422 9662
7422 9696
7423 7424
7423 7426
7423 7427
7424 7425
7424 7426
7424 7427
7424 7428
7425 7426
7425 7427
7425 7428
7425 7429
7426 7427
7426 7428
7426 7429
7426 7430
7427 7429
7427 7431
7427 8184
7428 7429
7428 7430
7428 7431
7428 7432
7429 7430
7429 7431
7429 7432
7429 7433
7430 7431
7430 7432
7430 7433
7430 7434
7431 7432
7431 7433
7431 7434
7431 7435
7432 7433
7432 7434
7432 7435
7432 7436
7433 7434
7433 7436
7433 7437
7434 7435
7434 7436
7434 7437
7434 7438
7435 7436
7435 7438
7435 7439
7435 8514
7436 7437
7436 7438
7436 7440
7437 7438
7437 7439
7437 7440
7437 7441
7438 7439
7438 7440
7438 7441
7438 7442
7439 7440
7439 7441
7439 7443
7440 7441
7440 7442
7440 7443
7440 7444
7441 7442
7441 7443
7441 7444
7442 7443
7442 7444
7442 7445
7442 7446
7443 7444
7443 7445
7443 7447
7444 7445
7444 7446
7444 7447
7444 7448
7445 7446
7445 7447
7445 7448
7445 7449
7446 7447
7446 7448
7446 7449
7446 7450
7447 7448
7447 7449
7447 7451
7448 7449
7448 7450
7448 7451
7448 7452
7449 7450
7449 7451
7449 7452
7449 7453
7450 7451
7450 7452
7450 7453
7450 7454
7451 7452
7451 7453
7451 7454
7451 7455
7452 7453
7452 7454
7453 7454
7453 7455
7453 7456
7453 7457
7454 7456
7454 7457
7454 7458
7455 7457
7455 7458
7455 7459
7456 7457
7456 7458
7456 7459
7457 7458
7457 7459
7457 7460
7458 7459
7458 7460
7458 7461
7458 7622
7459 7460
7459 7461
7459 7462
7459 7463
7460 7461
7460 7462
7460 7463
7460 7464
7461 7465
7461 7658
7462 7463
7462 7465
7462 7466
7462 9111
7463 7464
7463 7465
7463 7466
7463 7467
7464 7465
7464 9399
7464 7586
7465 7466
7465 7467
7465 7468
7466 7467
7466 7468
7466 7469
7466 7470
7466 9927
7467 7468
7467 7470
7467 7471
7467 8369
7468 7469
7468 7470
7468 7472
7468 9298
7469 7470
7469 7471
7469 7473
7470 7471
7470 7472
7470 7473
7470 7474
7470 7684
7471 7472
7471 7473
7471 7475
7471 7870
7472 7473
7472 7475
7472 7476
7472 9937
7473 7475
7473 7476
7473 7477
7473 8258
7474 7475
7474 7476
7474 7477
7474 7478
7475 7476
7475 7477
7475 7478
7475 7479
7476 7477
7476 7478
7476 7479
7477 7478
7477 7479
7477 7480
7477 7481
7478 7479
7478 7480
7478 7481
7478 7482
7479 7480
7479 7482
7479 7483
7479 9346
7480 7481
7480 7483
7480 7484
7481 7482
7481 7483
7481 7484
7481 7485
7482 7483
7482 7484
7482 7485
7482 7486
7483 7484
7483 7485
7483 7486
7483 7487
7484 7485
7484 7486
7484 7487
7484 7488
7485 7486
7485 7487
7485 7488
7485 7489
7486 7487
7486 7488
7486 7489
7486 7490
7487 7488
7487 7489
7487 7490
7487 7491
7488 7489
7488 7490
7488 7491
7488 7492
7489 7490
7489 7491
7489 7492
7489 7493
7490 7491
7490 7492
7490 7493
7490 7494
7491 7492
7491 7493
7491 7494
7491 7495
7492 7493
7492 7494
7492 7495
7492 7496
7493 7494
7493 7495
7493 7496
7493 7497
7494 7496
7494 7497
7494 9307
7495 7496
7495 7497
7495 7498
7495 7499
7496 7497
7496 7498
7496 7499
7496 7500
7497 7498
7497 7499
7497 7500
7498 7499
7498 7501
7498 7502
7499 7500
7499 7501
7499 7502
7499 7503
7499 9235
7500 7502
7500 7503
7500 7504
7501 7502
7501 7503
7501 7504
7501 7505
7502 7504
7502 7505
7502 7506
7502 8490
7503 7504
7503 7505
7503 7506
7503 7507
7504 7505
7504 7506
7504 7507
7504 7508
7505 7506
7505 7507
7505 7508
7505 7509
7506 7507
7506 7508
7506 7509
7506 7510
7507 7508
7507 7509
7507 7510
7507 7511
7507 8748
7508 7509
7508 7511
7508 7512
7509 7510
7509 7511
7509 7512
7509 7513
7510 7511
7510 7512
7510 7513
7510 7514
7511 7512
7511 7513
7511 7515
7511 8389
7512 7513
7512 7514
7512 7515
7512 7516
7513 7514
7513 7515
7513 7516
7513 7517
7514 7515
7514 7516
7514 7517
7514 7518
7515 7516
7515 7517
7515 7518
7516 7518
7516 7519
7516 7520
7516 8532
7517 7518
7517 7519
7517 7520
7517 7521
7517 9646
7518 7519
7518 7520
7518 7522
7518 8530
7518 8357
7519 7520
7519 7522
7519 7523
7520 7521
7520 7522
7520 7523
7520 7524
7521 7522
7521 7523
7521 7524
7522 7523
7522 7524
7522 7525
7522 7526
7523 7524
7523 7525
7523 7526
7523 7527
7524 7525
7524 7526
7524 7527
7524 7528
7525 7526
7525 7527
7525 7528
7525 7529
7526 7528
7526 7529
7526 7530
7527 7528
7527 7529
7527 7530
7527 7531
7528 7529
7528 7530
7528 7531
7528 7532
7528 8531
7529 7530
7529 7531
7529 7532
7529 7533
7530 7531
7530 7532
7530 7533
7530 7534
7531 7532
7531 7533
7531 7534
7531 7535
7532 7533
7532 7534
7532 7535
7532 7536
7533 7535
7533 7536
7533 7537
7533 9814
7533 9102
7534 7535
7534 7536
7534 7537
7534 7538
7534 7780
7535 7537
7535 7539
7535 8491
7536 7537
7536 7538
7536 7539
7536 7540
7537 7538
7537 7539
7537 7540
7537 7541
7538 7539
7538 7540
7538 7541
7538 7542
7539 7540
7539 7541
7539 7542
7539 7543
7540 7541
7540 7542
7540 7543
7540 7544
7541 7542
7541 7543
7541 7544
7542 7543
7542 7544
7542 7545
7542 7546
7543 7544
7543 7545
7543 7546
7543 7547
7544 7545
7544 7546
7544 7547
7544 7548
7545 7546
7545 7547
7545 7548
7545 7549
7546 7547
7546 7548
7546 7549
7547 7548
7547 7550
7547 7551
7548 7549
7548 7550
7548 7551
7548 7552
7548 9633
7549 7550
7549 7551
7549 7552
7549 7553
7550 7551
7550 7552
7550 7553
7550 7554
7551 7552
7551 7553
7551 7554
7551 7555
7552 7553
7552 7555
7552 7556
7553 7554
7553 7555
7553 7556
7553 7557
7553 7837
7554 7555
7554 7556
7554 7557
7554 7558
7554 9425
7555 7556
7555 7557
7555 7558
7555 7559
7556 7557
7556 7558
7556 7559
7556 7560
7557 7558
7557 7559
7557 7560
7557 7561
7558 7559
7558 7560
7558 7562
7558 9353
7559 7560
7559 7561
7559 7562
7559 7563
7560 7561
7560 7562
7560 7563
7560 7564
7561 7563
7561 7564
7561 7565
7562 7563
7562 7564
7562 7565
7562 7566
7563 7564
7563 7565
7563 7566
7563 7567
7564 7565
7564 7566
7564 7567
7564 7568
7565 7566
7565 7567
7565 7568
7565 7569
7566 7567
7566 7568
7566 7569
7566 7570
7567 7568
7567 7569
7567 7570
7567 7571
7568 7569
7568 7570
7568 7571
7568 7572
7569 7570
7569 7571
7569 7572
7569 7984
7570 7571
7570 7572
7570 7574
7571 7572
7571 7573
7571 7574
7571 7575
7572 7573
7572 7574
7572 7575
7572 7576
7573 7574
7573 7575
7573 7576
7573 7663
7574 7575
7574 7576
7574 7577
7574 7578
7575 7576
7575 7577
7575 7578
7575 7579
7576 7577
7576 7578
7576 7579
7576 7580
7577 7578
7577 7580
7577 7581
7578 7580
7578 7581
7578 7582
7579 7580
7579 7581
7579 7582
7580 7581
7580 7582
7580 7583
7580 7584
7581 7582
7581 7583
7581 7584
7581 7585
7582 7583
7582 7584
7582 7585
7582 7586
7582 9194
7583 7584
7583 7585
7583 7586
7583 7587
7584 7586
7584 7587
7584 9868
7585 7586
7585 7587
7585 7588
7585 7589
7586 7587
7586 7588
7586 7589
7587 7588
7587 7589
7587 7591
7588 7590
7588 7591
7588 7592
7588 8133
7589 7590
7589 7591
7589 7592
7589 7593
7590 7591
7590 7592
7590 7593
7590 7594
7591 7592
7591 7593
7591 7594
7591 7595
7592 7593
7592 7594
7592 7596
7593 7594
7593 7595
7593 7596
7594 7595
7594 7596
7594 7597
7594 7598
7595 7596
7595 7597
7595 7598
7595 8723
7596 7597
7596 7598
7596 7599
7596 7600
7597 7599
7597 7600
7597 7601
7598 7599
7598 7600
7598 7601
7598 7602
7599 7600
7599 7601
7599 7602
7599 7603
7600 7601
7600 7602
7600 7603
7600 9362
7601 7603
7601 7604
7601 7605
7602 7603
7602 7604
7602 7605
7602 7606
7603 7604
7603 7605
7603 7606
7603 7607
7604 7605
7604 7606
7604 7607
7604 7608
7605 7606
7605 7607
7605 7608
7605 7609
7606 7607
7606 7608
7606 7609
7606 7610
7607 7608
7607 7610
7607 7611
7608 7609
7608 7610
7608 7612
7609 7610
7609 7611
7609 7612
7609 7613
7610 7611
7610 7612
7610 7613
7610 7614
7611 7612
7611 7613
7611 7614
7611 7615
7611 8866
7612 7613
7612 7614
7612 7615
7612 7616
7613 7615
7613 7616
7613 7617
7613 9237
7614 7615
7614 7616
7614 7617
7614 7618
7615 7616
7615 7617
7615 7618
7615 7619
7616 7617
7616 7618
7616 7619
7616 9452
7617 7618
7617 7619
7617 7620
7618 7619
7618 7620
7618 7621
7618 7622
7619 7621
7619 7622
7619 7623
7620 7621
7620 7622
7620 7623
7620 7624
7621 7622
7621 7623
7621 7624
7621 7625
7622 7623
7622 7624
7622 7626
7623 7624
7623 7625
7623 7626
7623 7627
7624 7625
7624 7626
7624 7628
7625 7626
7625 7627
7625 7628
7625 7629
7626 7628
7626 7629
7626 7630
7626 8834
7626 7904
7626 8218
7627 7628
7627 7629
7627 7630
7627 7631
7628 7629
7628 7630
7628 7631
7628 7632
7628 7711
7628 8522
7629 7630
7629 7631
7629 7632
7629 7633
7630 7631
7630 7632
7630 7633
7630 7634
7631 7632
7631 7633
7631 7634
7631 7635
7632 7633
7632 7634
7632 7636
7633 7634
7633 7635
7633 7636
7633 7637
7634 7635
7634 7637
7634 7638
7634 9987
7635 7636
7635 7637
7635 7638
7635 7639
7636 7637
7636 7638
7636 7639
7636 8403
7637 7638
7637 7639
7637 7640
7637 7641
7638 7639
7638 7641
7638 7642
7639 7640
7639 7641
7639 7642
7639 7643
7639 8029
7640 7641
7640 7642
7640 9546
7641 7644
7641 7645
7641 9472
7642 7643
7642 7644
7642 7645
7642 7646
7642 9308
7643 7644
7643 7645
7643 7646
7643 9329
7644 7645
7644 7646
7644 7647
7644 7648
7645 7646
7645 7647
7645 7648
7645 7649
7646 7647
7646 7648
7646 7649
7646 7650
7647 7648
7647 7649
7647 7650
7647 7651
7648 7649
7648 7650
7648 7651
7648 7652
7649 7650
7649 7651
7649 7652
7649 7653
7650 7651
7650 7652
7650 7653
7650 7654
7651 7652
7651 7653
7651 7654
7651 7655
7652 7653
7652 7655
7652 7656
7653 7654
7653 7655
7653 7656
7653 7657
7654 7655
7654 7656
7654 7657
7655 7657
7655 7658
7655 7659
7655 9514
7656 7657
7656 7658
7656 7659
7656 7660
7657 7658
7657 7659
7657 7660
7658 7659
7658 7660
7658 7661
7658 7662
7659 7660
7659 7661
7659 7662
7659 7663
7660 7661
7660 7662
7660 7663
7660 7664
7661 7663
7661 7664
7661 7665
7662 7664
7662 7665
7662 7666
7662 9584
7663 7665
7663 7666
7663 7667
7664 7665
7664 7666
7664 7667
7664 7668
7665 7666
7665 7668
7665 7669
7665 8213
7665 9651
7666 7667
7666 7668
7666 7670
7667 7668
7667 7669
7667 7670
7667 7776
7668 7669
7668 7671
7668 7672
7669 7670
7669 7671
7669 7672
7669 7673
7670 7671
7670 7672
7670 7673
7670 7674
7671 7672
7671 7673
7671 7674
7671 7675
7672 7673
7672 7674
7672 7675
7672 7676
7673 7675
7673 7676
7673 7677
7673 9632
7674 7676
7674 7677
7674 7678
7674 9461
7675 7677
7675 7679
7675 8182
7675 8108
7676 7677
7676 7678
7676 7679
7676 7680
7677 7679
7677 7680
7677 7681
7677 9021
7678 7679
7678 7680
7678 7681
7679 7680
7679 7681
7679 7682
7679 7683
7680 7683
7680 7684
7681 7682
7681 7683
7681 7684
7681 7685
7682 7683
7682 7684
7682 7685
7682 7686
7683 7684
7683 7685
7683 7686
7683 7687
7684 7685
7684 7686
7684 7687
7685 7686
7685 7687
7685 7688
7685 7689
7686 7687
7686 7688
7686 7690
7687 7688
7687 7690
7687 7691
7688 7689
7688 7690
7688 7691
7688 7692
7689 7690
7689 7692
7689 7693
7690 7691
7690 7692
7690 8826
7691 7692
7691 7693
7691 7694
7691 7695
7692 7693
7692 7694
7692 9685
7693 7694
7693 7695
7693 7696
7693 7697
7694 7695
7694 7696
7694 7697
7694 7698
7695 7697
7695 7698
7695 7699
7695 7801
7695 9099
7696 7697
7696 7698
7696 7699
7696 7700
7697 7698
7697 7699
7697 7700
7697 8122
7698 7699
7698 7700
7698 7701
7698 7702
7699 7700
7699 7701
7699 7702
7699 7703
7700 7701
7700 7702
7700 7703
7700 7704
7701 7702
7701 7703
7701 7704
7701 7705
7702 7703
7702 7704
7702 7705
7702 7706
7703 7706
7703 7707
7703 7987
7704 7705
7704 7706
7704 7707
7704 7708
7705 7706
7705 7707
7705 7708
7705 7709
7705 7725
7706 7707
7706 7708
7706 7709
7707 7708
7707 7709
7707 7711
7708 7709
7708 7710
7708 7711
7708 7712
7709 7710
7709 7711
7709 7712
7709 8709
7710 7711
7710 7712
7710 7713
7710 7714
7711 7712
7711 7713
7712 7713
7712 7714
7712 7715
7712 7716
7713 7714
7713 7715
7713 7716
7713 7717
7714 7715
7714 7716
7714 7717
7714 7718
7715 7716
7715 7717
7715 7718
7715 7719
7716 7717
7716 7718
7716 7719
7716 7720
7717 7718
7717 7719
7717 7720
7717 7721
7718 7719
7718 7720
7718 7721
7718 7722
7719 7720
7719 7721
7719 7722
7719 7723
7720 7721
7720 7722
7720 7723
7720 7724
7721 7722
7721 7723
7721 7724
7721 7725
7722 7723
7722 7724
7722 7725
7722 7726
7723 7724
7723 7725
7723 7726
7723 9758
7724 7725
7724 7726
7724 7727
7724 7728
7725 7726
7725 7728
7725 7729
7726 7728
7726 7729
7726 7730
7726 7766
7727 7728
7727 7730
7727 7731
7728 7729
7728 7730
7728 7731
7728 7732
7729 7730
7729 7731
7729 7732
7729 7733
7730 7731
7730 7732
7730 7733
7730 7734
7731 7732
7731 7733
7731 7734
7731 7735
7731 8532
7732 7734
7732 7735
7732 7736
7733 7734
7733 7735
7733 7736
7733 7737
7734 7735
7734 7736
7734 7737
7734 7738
7735 7736
7735 7738
7735 7739
7736 7737
7736 7738
7736 7739
7736 7740
7737 7738
7737 7739
7737 9957
7738 7740
7738 7741
7738 7742
7739 7740
7739 7741
7739 7742
7739 7743
7740 7741
7740 7742
7740 7743
7740 7744
7741 7742
7741 7743
7741 7744
7741 7745
7742 7743
7742 7745
7743 7744
7743 7745
7743 7746
7743 7747
7744 7745
7744 7746
7744 7748
7744 8006
7745 7746
7745 7747
7745 7749
7746 7747
7746 7748
7746 7749
7746 7750
7747 7749
7747 7750
7747 7751
7748 7749
7748 7750
7748 7751
7748 7752
7749 7750
7749 7752
7749 7753
7749 8066
7750 7751
7750 7752
7750 7753
7750 7754
7751 7752
7751 7753
7751 7754
7751 7755
7752 7753
7752 7754
7752 7755
7752 7756
7753 7754
7753 7755
7753 7756
7753 7757
7754 7755
7754 7756
7754 7757
7754 7758
7755 7756
7755 7757
7755 7758
7755 7759
7756 7757
7756 7758
7756 7759
7756 7760
7757 7759
7757 7760
7757 7761
7758 7760
7758 7761
7758 7762
7758 7814
7759 7760
7759 7762
7759 7763
7760 7761
7760 7762
7760 7763
7760 7764
7761 7762
7761 7764
7761 7765
7762 7764
7762 7765
7762 7766
7763 7764
7763 7765
7763 7766
7763 7767
7764 7766
7764 7767
7764 7768
7765 7767
7765 7768
7765 7769
7766 7767
7766 7768
7766 7769
7766 7770
7767 7768
7767 7769
7767 7770
7767 8748
7768 7769
7768 7770
7768 7771
7768 7772
7769 7770
7769 7771
7769 7772
7769 7773
7770 7771
7770 7772
7770 7773
7770 7774
7771 7772
7771 7773
7771 7774
7771 7810
7772 7775
7772 7776
7773 7774
7773 7775
7773 7776
7773 7777
7774 7775
7774 7776
7774 7777
7775 7776
7775 7777
7775 7778
7775 7779
7776 7777
7776 7778
7777 7779
7777 7780
7777 7781
7778 7779
7778 7780
7778 7781
7778 7782
7779 7780
7779 7781
7779 7782
7779 7783
7780 7782
7780 7783
7780 7784
7781 7782
7781 7783
7781 7784
7781 7785
7782 7783
7782 7784
7782 7785
7782 7786
7783 7784
7783 7785
7783 7786
7783 7787
7784 7785
7784 7786
7784 7787
7784 7788
7784 9501
7785 7786
7785 7787
7785 7788
7785 7789
7786 7787
7786 7788
7786 9828
7787 7788
7787 7789
7787 7790
7787 7791
7788 7789
7788 7790
7788 7791
7788 7792
7789 7790
7789 7791
7789 7792
7789 7793
7790 7791
7790 7792
7790 7793
7790 7794
7791 7792
7791 7793
7791 7794
7791 7795
7792 7794
7792 7795
7792 7796
7792 8005
7793 7794
7793 7795
7793 7796
7793 7797
7794 7795
7794 7796
7794 7797
7794 7798
7795 7797
7795 7798
7795 7799
7795 9674
7796 7797
7796 7798
7796 8785
7797 7798
7797 7800
7797 7801
7797 7993
7798 7799
7798 7800
7798 7801
7798 7802
7799 7800
7799 7801
7799 7802
7799 7803
7800 7801
7800 7802
7800 7804
7801 7802
7801 7955
7802 7803
7802 7804
7802 7805
7802 7806
7803 7804
7803 7805
7803 7806
7804 7805
7804 7808
7805 7806
7805 7807
7805 7808
7805 7809
7806 7807
7806 7808
7806 7809
7806 7810
7807 7808
7807 7809
7807 7810
7807 9162
7808 7809
7808 7810
7808 7811
7808 7812
7809 7810
7809 7811
7809 7812
7809 7813
7810 7811
7810 7813
7810 7814
7811 7812
7811 7813
7811 7814
7812 7813
7812 7814
7812 7815
7813 7815
7813 7817
7813 9369
7814 7815
7814 7816
7814 7818
7815 7816
7815 7817
7815 7818
7815 7819
7816 7817
7816 7818
7816 7819
7816 7820
7816 9444
7817 7818
7817 7819
7817 7820
7817 7821
7818 7819
7818 7820
7818 7821
7818 7822
7819 7820
7819 7821
7819 7822
7819 7823
7820 7821
7820 7822
7820 7823
7820 7824
7821 7822
7821 7823
7821 7824
7821 7825
7822 7823
7822 7824
7822 7825
7822 7826
7823 7824
7823 7825
7823 7826
7823 7827
7824 7825
7824 7826
7824 7827
7824 7828
7825 7826
7825 7827
7825 7828
7825 7829
7826 7828
7826 7829
7826 7830
7827 7828
7827 7829
7827 7830
7827 7831
7828 7829
7828 7830
7828 7831
7828 7832
7829 7830
7829 7831
7829 7832
7829 7833
7830 7831
7830 7832
7830 7833
7830 7834
7831 7832
7831 7833
7831 7834
7831 7835
7832 7833
7832 7834
7832 7835
7832 7836
7833 7834
7833 7835
7833 7836
7833 7837
7834 7835
7834 7836
7834 7837
7834 7838
7835 7836
7835 7837
7835 7838
7836 7837
7836 7839
7836 7840
7837 7838
7837 7839
7837 7841
7838 7839
7838 7840
7838 7841
7838 7842
7839 7840
7839 7841
7839 7842
7839 7843
7840 7841
7840 7842
7840 7843
7840 7844
7841 7842
7841 7843
7841 7844
7841 7845
7842 7843
7842 7844
7842 7845
7842 7846
7843 7844
7843 7845
7843 7846
7843 7847
7844 7845
7844 7846
7844 7847
7844 7848
7845 7846
7845 7847
7845 7848
7845 7849
7846 7847
7846 7848
7846 7849
7846 7850
7847 7848
7847 7849
7847 7850
7847 7851
7848 7849
7848 7850
7848 7851
7848 7852
7849 7850
7849 7851
7849 7852
7849 7853
7850 7851
7850 7852
7850 7853
7850 7854
7851 7852
7851 7853
7851 7854
7851 7855
7852 7853
7852 7854
7852 7855
7852 7856
7853 7854
7853 7855
7853 7856
7853 7857
7854 7855
7854 7856
7854 7857
7854 7858
7855 7856
7855 7857
7855 7858
7855 7859
7856 7857
7856 7858
7856 7859
7856 7860
7857 7858
7857 7859
7857 7860
7857 7861
7858 7859
7858 7860
7858 7861
7858 7862
7858 7867
7859 7861
7859 7862
7859 7863
7859 9278
7860 7861
7860 7862
7860 7863
7860 7864
7861 7862
7861 7863
7861 7864
7861 7865
7862 7863
7862 7864
7862 7865
7862 7866
7863 7865
7863 7866
7863 7867
7863 7894
7864 7866
7864 7867
7864 7868
7864 8835
7865 7866
7865 7867
7865 7869
7865 8857
7866 7867
7866 7868
7866 7869
7866 7961
7867 7868
7867 7869
7867 7871
7867 8603
7868 7869
7868 7870
7868 7871
7868 7872
7869 7870
7869 7871
7869 7872
7870 7872
7870 7873
7870 7874
7871 7872
7871 7873
7871 7874
7871 7875
7872 7873
7872 7874
7872 7875
7872 7876
7873 7874
7873 7876
7873 7877
7874 7875
7874 7876
7874 7877
7874 7878
7875 7877
7875 7878
7875 7879
7876 7877
7876 7878
7876 7879
7876 7880
7877 7879
7877 7880
7877 7881
7877 8575
7878 7879
7878 7880
7878 7881
7878 7882
7878 9333
7879 7880
7879 7881
7879 7882
7879 7883
7880 7883
7880 7884
7880 9251
7881 7882
7881 7883
7881 7885
7882 7883
7882 7884
7882 7885
7882 7886
7882 9555
7883 7884
7883 7885
7883 7886
7883 7887
7884 7885
7884 7886
7884 7887
7884 7888
7885 7886
7885 7887
7885 7888
7885 7889
7886 7887
7886 7888
7886 7889
7886 7890
7887 7889
7887 7890
7887 7891
7888 7889
7888 7890
7888 7892
7889 7890
7889 7891
7889 7892
7889 7893
7890 7891
7890 7892
7890 7893
7890 7894
7890 8681
7891 7893
7891 7894
7891 7895
7891 9227
7892 7893
7892 7894
7892 7895
7892 7896
7893 7894
7893 7895
7893 7896
7893 7897
7893 8277
7894 7895
7894 7897
7895 7896
7895 7897
7895 7898
7895 7899
7896 7897
7896 7898
7896 7899
7896 7900
7897 7898
7897 7899
7897 7901
7898 7899
7898 7900
7898 7901
7898 7902
7899 7901
7899 7902
7899 7903
7900 7901
7900 7902
7900 7903
7900 7904
7901 7902
7901 7903
7901 7905
7901 9232
7902 7903
7902 7904
7902 7905
7902 8397
7903 7904
7903 7905
7903 7906
7903 7907
7903 8216
7904 7907
7904 7908
7905 7906
7905 7907
7905 7908
7905 7909
7906 7908
7906 7909
7906 7910
7906 8714
7907 7908
7907 7909
7907 7910
7907 7911
7908 7909
7908 7910
7908 7911
7908 7912
7909 7910
7909 7911
7909 7913
7910 7911
7910 7912
7910 7913
7910 7914
7911 7912
7911 7913
7911 7914
7911 7915
7912 7913
7912 7914
7912 7915
7912 7916
7913 7914
7913 7915
7913 7916
7913 7917
7914 7915
7914 7916
7914 7917
7914 7918
7915 7917
7915 7918
7915 7919
7916 7917
7916 7918
7916 7920
7916 8981
7917 7918
7917 7919
7917 7920
7917 7921
7918 7919
7918 7920
7918 7921
7918 7922
7919 7920
7919 7921
7919 7922
7919 7923
7920 7921
7920 7922
7920 7923
7920 7924
7921 7922
7921 7924
7921 7925
7922 7923
7922 7924
7922 7925
7922 7926
7923 7924
7923 7925
7923 7926
7923 7927
7924 7925
7924 7926
7924 7927
7924 7928
7925 7926
7925 7927
7925 7928
7925 7929
7926 7927
7926 7928
7926 7930
7926 9048
7927 7928
7927 7929
7927 7930
7928 7929
7928 7930
7928 7931
7928 7932
7929 7930
7929 7931
7929 7932
7929 7933
7930 7931
7930 7932
7930 7933
7930 8049
7931 7932
7931 7933
7931 7934
7931 7935
7932 7933
7932 7934
7932 7935
7932 7936
7933 7934
7933 7935
7933 7936
7933 7937
7934 7935
7934 7936
7934 7937
7934 7938
7935 7936
7935 7937
7935 7938
7936 7938
7936 7939
7936 9758
7937 7938
7937 7939
7937 7940
7937 7941
7938 7939
7938 7942
7938 9814
7939 7940
7939 7941
7939 7942
7939 7943
7940 7941
7940 7942
7940 7943
7940 7944
7941 7942
7941 7944
7942 7943
7942 7944
7942 7945
7942 7946
7942 8047
7943 7945
7943 7946
7943 8948
7944 7945
7944 7946
7944 7948
7945 7946
7945 7947
7945 7948
7945 7949
7946 7947
7946 7949
7946 7950
7947 7948
7947 7949
7947 7951
7948 7949
7948 7950
7948 7951
7949 7951
7949 7952
7949 7953
7949 8300
7950 7951
7950 7952
7950 7954
7951 7952
7951 7953
7951 7954
7951 7955
7952 7953
7952 7954
7952 7955
7952 7956
7953 7954
7953 7955
7953 7956
7953 7957
7954 7956
7954 7957
7954 7958
7955 7957
7955 7959
7956 7957
7956 7958
7956 7959
7956 7960
7957 7958
7957 7959
7957 7960
7957 7961
7958 7959
7958 7960
7958 7961
7958 7962
7959 7960
7959 7961
7959 7962
7959 7963
7960 7961
7960 7962
7960 7963
7961 7962
7961 7963
7961 7964
7961 7965
7962 7963
7962 7964
7962 7965
7962 7966
7962 9307
7963 7964
7963 7965
7963 7966
7963 7967
7964 7965
7964 7967
7964 7968
7964 8451
7965 7966
7965 7967
7965 7969
7966 7968
7966 7969
7966 7970
7967 7968
7967 7969
7967 7970
7968 7969
7968 7970
7968 7971
7968 7972
7968 9849
7969 7970
7969 7971
7969 7972
7969 7973
7970 7973
7970 7974
7971 7972
7971 7973
7971 7974
7971 7975
7971 9744
7972 7973
7972 7974
7972 7975
7972 7976
7973 7974
7973 7975
7973 7976
7973 7977
7974 7975
7974 7976
7974 7977
7974 7978
7975 7976
7975 7977
7975 7978
7975 7979
7976 7977
7976 7978
7976 7979
7976 7980
7977 7978
7977 7979
7977 7980
7977 7981
7978 7979
7978 7980
7978 7981
7978 7982
7979 7981
7979 7982
7979 7983
7980 7981
7980 7982
7980 7984
7981 7982
7981 7983
7981 7984
7981 7985
7982 7983
7982 7984
7982 7986
7983 7984
7983 7985
7983 7986
7983 7987
7984 7986
7984 7987
7984 7988
7984 8777
7985 7986
7985 7989
7986 7987
7986 7988
7986 7989
7986 7990
7986 9455
7987 7989
7987 7990
7987 7991
7988 7989
7988 7990
7988 7991
7988 7992
7989 7990
7989 7991
7989 7992
7989 7993
7990 7991
7990 7992
7990 7993
7990 7994
7991 7992
7991 7994
7991 7995
7992 7993
7992 7994
7992 7995
7993 7994
7993 8837
7994 7995
7994 7996
7994 7997
7995 7996
7995 7997
7995 7998
7995 7999
7996 7997
7996 7998
7996 7999
7996 8000
7996 9404
7997 7998
7997 8000
7997 8001
7998 7999
7998 8001
7998 8002
7999 8001
7999 8002
7999 8003
8000 8001
8000 8002
8000 8003
8000 8004
8000 8910
8001 8002
8001 8003
8001 8004
8001 8005
8002 8003
8002 8005
8002 8006
8003 8004
8003 8005
8003 8006
8003 8007
8004 8005
8004 8006
8004 8007
8004 8008
8004 9925
8005 8006
8005 8007
8005 8009
8006 8007
8006 8008
8006 8009
8006 8010
8007 8008
8007 8009
8007 8010
8007 8011
8008 8009
8008 8010
8008 8011
8008 8012
8009 8010
8009 8011
8009 8012
8010 8011
8010 8012
8010 8014
8011 8012
8011 8013
8011 8014
8011 8015
8012 8013
8012 8014
8012 8015
8012 8016
8013 8014
8013 8015
8013 8016
8013 8017
8014 8015
8014 8016
8014 8017
8014 8018
8015 8016
8015 8017
8015 8381
8016 8017
8016 8018
8016 8019
8016 8020
8016 9795
8017 8018
8017 8020
8017 8021
8018 8019
8018 8020
8018 8022
8019 8020
8019 8021
8019 8022
8019 8023
8020 8022
8020 8023
8020 8024
8021 8023
8021 9725
8022 8023
8022 8024
8023 8024
8023 8025
8023 8027
8023 9724
8024 8025
8024 8026
8024 8027
8025 8026
8025 8027
8025 8028
8025 8029
8026 8027
8026 8028
8026 8029
8026 8030
8027 8029
8027 8030
8027 8031
8028 8029
8028 8030
8028 8031
8028 8032
8029 8030
8029 8032
8030 8031
8030 8032
8030 8033
8030 8954
8031 8032
8031 8033
8031 8034
8031 9787
8032 8033
8032 8034
8032 8036
8033 8034
8033 8035
8033 8036
8033 8037
8034 8035
8034 8036
8034 8037
8034 8038
8035 8036
8035 8037
8035 8038
8035 8039
8036 8037
8036 8038
8036 8039
8036 8040
8037 8038
8037 8039
8037 8040
8037 9218
8038 8039
8038 8040
8038 8041
8038 8042
8039 8040
8039 8041
8039 8042
8039 8043
8040 8041
8040 8042
8040 8044
8041 8042
8041 8043
8041 8044
8041 8045
8042 8044
8042 8045
8042 8046
8043 8044
8043 8045
8043 8046
8043 8047
8044 8045
8044 8046
8044 8047
8044 8048
8045 8046
8045 8047
8045 8048
8045 8049
8045 9096
8045 9341
8046 8047
8046 8048
8046 8049
8046 8050
8047 8049
8047 8050
8047 8051
8048 8049
8048 8050
8048 8051
8048 8052
8049 8050
8049 8051
8049 8053
8050 8051
8050 8052
8050 8053
8050 8054
8051 8052
8051 8053
8051 8054
8051 8055
8052 8053
8052 8054
8052 8056
8053 8054
8053 8055
8053 8056
8053 8057
8053 9686
8054 8055
8054 8058
8055 8056
8055 8057
8055 8058
8055 8059
8056 8057
8056 8058
8056 8059
8056 8060
8057 8058
8057 8059
8057 8060
8057 8061
8058 8059
8058 8060
8058 8061
8058 8062
8059 8060
8059 8061
8059 8062
8059 8063
8060 8062
8060 8063
8060 8064
8061 8062
8061 8063
8061 8064
8061 8065
8062 8064
8062 8065
8062 8066
8063 8064
8063 8065
8063 8066
8063 8067
8064 8065
8064 8066
8064 8067
8064 8068
8065 8066
8065 8067
8065 8068
8065 8069
8066 8067
8066 8068
8066 8069
8066 8070
8066 9449
8067 8068
8067 8069
8067 8070
8067 8071
8068 8069
8068 8070
8068 8071
8068 8072
8069 8070
8069 8071
8069 8072
8069 8073
8070 8071
8070 8072
8070 8073
8070 8074
8071 8072
8071 8073
8071 8074
8071 8075
8072 8073
8072 8074
8072 8075
8072 8076
8073 8074
8073 8075
8073 8076
8073 8077
8074 8075
8074 8076
8074 8077
8074 8078
8074 9001
8075 8076
8075 8077
8075 8078
8075 8079
8076 8077
8076 8078
8076 8079
8076 8080
8076 8921
8077 8079
8077 8080
8077 8081
8078 8079
8078 8080
8078 8081
8078 8082
8079 8080
8079 8081
8079 8082
8079 8083
8080 8081
8080 8082
8080 8083
8080 8084
8081 8083
8081 8084
8081 8085
8082 8083
8082 8084
8082 8085
8082 8086
8083 8084
8083 8086
8083 8087
8084 8085
8084 8086
8084 8087
8084 8088
8085 8086
8085 8087
8085 8088
8085 8089
8086 8087
8086 8088
8086 8089
8087 8088
8087 8089
8087 8090
8087 8091
8088 8091
8088 8092
8089 8090
8089 8091
8089 8092
8089 8093
8090 8091
8090 8093
8090 8094
8091 8092
8091 8093
8091 8095
8092 8093
8092 8094
8092 8095
8092 8096
8092 8810
8092 8334
8093 8094
8093 8095
8093 8096
8093 8097
8094 8095
8094 8096
8094 8097
8094 8098
8095 8096
8095 8097
8095 8098
8095 8099
8096 8097
8096 8098
8096 8100
8097 8098
8097 8099
8097 8100
8097 8101
8098 8099
8098 8100
8098 8101
8098 8102
8099 8100
8099 8101
8099 8102
8100 8101
8100 8102
8100 8103
8100 8104
8101 8103
8101 8104
8101 8105
8102 8103
8102 8104
8102 8105
8102 8106
8103 8105
8103 8106
8103 8107
8103 8323
8104 8105
8104 8106
8104 8107
8104 8108
8105 8106
8105 8107
8105 8108
8105 8109
8106 8107
8106 8108
8106 8109
8106 8110
8107 8108
8107 8109
8107 8110
8107 8111
8107 8840
8108 8109
8108 8110
8108 8111
8108 8112
8109 8110
8109 8111
8109 8112
8109 8113
8110 8111
8110 8112
8110 8113
8110 8114
8111 8112
8111 8113
8111 8114
8112 8113
8112 8114
8112 8115
8112 8116
8113 8114
8113 8115
8113 8116
8113 8117
8114 8115
8114 8116
8114 8117
8114 8118
8115 8117
8115 8118
8115 8119
8116 8117
8116 8118
8116 8119
8116 8120
8117 8118
8117 8119
8117 8120
8117 8121
8118 8119
8118 8120
8118 8121
8118 8122
8119 8120
8119 8121
8119 8122
8119 8123
8120 8121
8120 8122
8120 8123
8120 8124
8121 8123
8121 8124
8121 8298
8121 8208
8122 8124
8122 8125
8122 8126
8123 8124
8123 8125
8123 8126
8123 8127
8124 8125
8124 8126
8124 8127
8124 8128
8124 8139
8125 8127
8125 8128
8125 8129
8126 8127
8126 8128
8126 8129
8126 8130
8127 8128
8127 8130
8127 8131
8128 8129
8128 8130
8128 8131
8128 8132
8129 8130
8129 8131
8129 8132
8130 8131
8130 8132
8130 8133
8130 8134
8131 8132
8131 8133
8131 8134
8131 8135
8132 8133
8132 8134
8132 8136
8133 8134
8133 8136
8133 8137
8134 8135
8134 8136
8134 8137
8134 8138
8135 8136
8135 8137
8135 8138
8135 8139
8136 8138
8136 8139
8136 8140
8137 8138
8137 8139
8137 8140
8137 8141
8138 8139
8138 8140
8138 8141
8138 8142
8139 8140
8139 8142
8139 8143
8140 8141
8140 8142
8140 8143
8140 8144
8141 8142
8141 8143
8141 8144
8141 8145
8142 8143
8142 8144
8142 8145
8142 8146
8143 8144
8143 8145
8143 8146
8143 8147
8144 8145
8144 8146
8144 8147
8144 8148
8145 8146
8145 8147
8145 8148
8145 8149
8146 8147
8146 8148
8146 8149
8146 8150
8147 8148
8147 8149
8147 8151
8148 8149
8148 8150
8148 8151
8148 8152
8149 8150
8149 8151
8149 8153
8150 8151
8150 8152
8150 8154
8150 8473
8150 9804
8151 8152
8151 8153
8151 8155
8152 8154
8152 8155
8152 8156
8152 9872
8153 8154
8153 8155
8153 8156
8154 8155
8154 8156
8154 8157
8154 8158
8155 8157
8155 8158
8155 8159
8155 8292
8156 8157
8156 8158
8156 8159
8156 8160
8157 8158
8157 8159
8157 8160
8157 8161
8158 8159
8158 8160
8158 8162
8159 8161
8159 8162
8159 8163
8160 8161
8160 8162
8160 8163
8160 8164
8161 8162
8161 8163
8161 8164
8161 8165
8162 8163
8162 8164
8162 8165
8162 8166
8163 8164
8163 8165
8163 8166
8163 8167
8164 8165
8164 8167
8164 8168
8165 8166
8165 8167
8165 8168
8165 8169
8166 8167
8166 8168
8166 8169
8166 8170
8167 8168
8167 8169
8167 8170
8167 8171
8168 8169
8168 8170
8168 8171
8168 8172
8169 8170
8169 8171
8169 8172
8169 8173
8170 8171
8170 8172
8170 8173
8170 8174
8171 8172
8171 8173
8171 8174
8171 8175
8172 8173
8172 8174
8172 8176
8173 8175
8173 8176
8173 8177
8173 9578
8174 8175
8174 8176
8174 8177
8174 8178
8175 8176
8175 8177
8175 8178
8175 8179
8176 8177
8176 8179
8176 8180
8177 8178
8177 8179
8177 8180
8177 8181
8178 8179
8178 8180
8178 8181
8178 8182
8179 8180
8179 8182
8180 8181
8180 8182
8180 8184
8180 8916
8181 8182
8181 8183
8181 8184
8181 8185
8182 8183
8182 8184
8182 8185
8182 8186
8183 8184
8183 8185
8183 8186
8183 8187
8184 8185
8184 8187
8184 8188
8185 8186
8185 8188
8185 8189
8185 8347
8186 8187
8186 8188
8186 8189
8186 8190
8187 8188
8187 8189
8187 8191
8188 8189
8188 8190
8188 8191
8188 8192
8189 8190
8189 8191
8189 8192
8189 8193
8190 8192
8190 8193
8190 8194
8191 8192
8191 8193
8191 8194
8191 8195
8192 8193
8192 8194
8192 8195
8192 8196
8193 8194
8193 8195
8193 8196
8193 8197
8194 8195
8194 8196
8194 8197
8194 8198
8194 9079
8195 8196
8195 8197
8195 8198
8196 8197
8196 8198
8196 8199
8196 8200
8197 8198
8197 8199
8197 8200
8197 8201
8198 8201
8198 8202
8198 9947
8199 8200
8199 8201
8199 8202
8199 8203
8200 8202
8200 8203
8200 8204
8200 9270
8201 8202
8201 8203
8201 8204
8201 8205
8201 9142
8202 8203
8202 8204
8202 8205
8202 8206
8203 8204
8203 8205
8203 8206
8203 8207
8204 8205
8204 8206
8204 8207
8204 8208
8204 8705
8205 8206
8205 8207
8205 8208
8205 8209
8205 8835
8206 8207
8206 8208
8206 8209
8206 8210
8207 8208
8207 8209
8207 8211
8208 8209
8208 8210
8208 8211
8209 8211
8209 8212
8209 8213
8210 8211
8210 8212
8210 8213
8210 8214
8211 8212
8211 8213
8211 8214
8211 8215
8212 8213
8212 8215
8212 8216
8212 8735
8212 9439
8213 8214
8213 8215
8213 8216
8213 8217
8214 8215
8214 8216
8214 8218
8214 9184
8215 8216
8215 8217
8215 8218
8215 8219
8215 9661
8216 8217
8216 8219
8217 8218
8217 8219
8217 8220
8217 8221
8217 8866
8218 8219
8218 8220
8218 8221
8219 8220
8219 8221
8219 8222
8219 8223
8220 8222
8220 8223
8220 8224
8221 8222
8221 8223
8221 8225
8222 8223
8222 8224
8222 8225
8222 8226
8223 8225
8223 8226
8223 8227
8223 9450
8224 8225
8224 8226
8224 8227
8224 8228
8225 8226
8225 8227
8225 8228
8225 8229
8226 8227
8226 8228
8226 8229
8226 8230
8227 8228
8227 8229
8227 8230
8227 8231
8227 8638
8228 8229
8228 8230
8228 8231
8228 8232
8229 8230
8229 8232
8229 8233
8229 9434
8230 8231
8230 8232
8230 8233
8230 8234
8231 8232
8231 8233
8231 8235
8232 8233
8232 8235
8232 8236
8232 8332
8232 9643
8233 8235
8233 8236
8233 8237
8233 9137
8234 8235
8234 8237
8234 8238
8235 8236
8235 8237
8235 8238
8235 8239
8236 8237
8236 8239
8236 8240
8237 8238
8237 8239
8237 8240
8237 8241
8238 8239
8238 8240
8238 8241
8238 8242
8239 8240
8239 8241
8239 8242
8239 8243
8240 8241
8240 8242
8240 8243
8241 8242
8241 8243
8241 8244
8241 8245
8242 8243
8242 8244
8242 8245
8242 8246
8243 8244
8243 8245
8243 8247
8243 8342
8244 8246
8244 8247
8244 8248
8245 8246
8245 8247
8245 8248
8245 8249
8246 8247
8246 8248
8246 8249
8246 8250
8247 8249
8247 8250
8247 8251
8248 8249
8248 8250
8248 8251
8248 8252
8249 8250
8249 8251
8249 8252
8249 8253
8250 8252
8250 8253
8250 8254
8251 8252
8251 8253
8251 8254
8251 8255
8252 8253
8252 8254
8252 8255
8252 8256
8253 8254
8253 8255
8253 8256
8253 8257
8254 8255
8254 8257
8254 8258
8255 8256
8255 8257
8255 8258
8256 8258
8256 8259
8256 8260
8256 9997
8256 8662
8257 8258
8257 8259
8257 8260
8257 8261
8258 8259
8258 8261
8258 8262
8258 9738
8259 8260
8259 8261
8259 8262
8259 8263
8260 8261
8260 8262
8260 8263
8260 8264
8261 8262
8261 8263
8261 8265
8262 8263
8262 8264
8262 8265
8262 8266
8263 8267
8263 9933
8263 8490
8264 8265
8264 8266
8264 8268
8265 8266
8265 8267
8265 8268
8265 8269
8266 8267
8266 8268
8266 8270
8267 8269
8267 8270
8267 8271
8268 8269
8268 8270
8268 8271
8269 8270
8269 8271
8269 8272
8269 9867
8270 8272
8270 8274
8271 8272
8271 8273
8271 8274
8271 8275
8272 8273
8272 8274
8272 8275
8272 8276
8273 8274
8273 8275
8273 8276
8273 8277
8274 8275
8274 8276
8274 8277
8274 8278
8275 8276
8275 8277
8275 8278
8275 8279
8276 8277
8276 8278
8276 8279
8276 8280
8277 8278
8277 8279
8277 8281
8278 8279
8278 8280
8278 8281
8278 8282
8279 8280
8279 8281
8279 8282
8279 8283
8280 8281
8280 8282
8280 8283
8280 8868
8281 8283
8282 8284
8282 8285
8282 8286
8282 9962
8283 8285
8283 8286
8283 8287
8284 8285
8284 8286
8284 8287
8285 8286
8285 8287
8285 8288
8285 8289
8286 8287
8286 8288
8286 8290
8286 8543
8287 8288
8287 8289
8287 8290
8287 8291
8288 8289
8288 8290
8288 8291
8288 8292
8289 8291
8289 8292
8289 8293
8289 9826
8290 8292
8290 8293
8290 8294
8291 8292
8291 8293
8291 8294
8291 8295
8292 8294
8292 8295
8292 9151
8292 9105
8293 8294
8293 8295
8293 8296
8293 8297
8294 8295
8294 8296
8294 8297
8294 8298
8295 8296
8295 8297
8295 8299
8295 8455
8296 8297
8296 8298
8296 8299
8296 8300
8296 9057
8297 8298
8297 8299
8297 8300
8297 8301
8298 8299
8298 8300
8298 8301
8298 8302
8299 8300
8299 8301
8299 8302
8299 8303
8300 8301
8300 8302
8300 8303
8300 8304
8301 8302
8301 8303
8301 8304
8301 8305
8302 8303
8302 8304
8302 8305
8302 8306
8303 8304
8303 8305
8303 8306
8303 8307
8304 8305
8304 8306
8304 8307
8304 8308
8305 8306
8305 8307
8305 8309
8306 8307
8306 8308
8306 8310
8307 8308
8307 8309
8307 8310
8307 8311
8308 8309
8308 8310
8308 8311
8308 8312
8309 8310
8309 8312
8309 8313
8310 8311
8310 8312
8310 8313
8310 8314
8311 8312
8311 8313
8311 8314
8311 8315
8312 8313
8312 8314
8312 8315
8313 8314
8313 8316
8313 8317
8314 8315
8314 8316
8314 8317
8314 8318
8315 8316
8315 8317
8315 8318
8315 8319
8316 8317
8316 8318
8316 8319
8316 8320
8317 8318
8317 8319
8317 8320
8317 8321
8318 8319
8318 8320
8318 8321
8318 8322
8319 8320
8319 8321
8320 8321
8320 8322
8320 8323
8320 8324
8321 8322
8321 8324
8321 8325
8322 8323
8322 8326
8323 8324
8323 8325
8323 8327
8324 8325
8324 8326
8324 8327
8324 8328
8325 8326
8325 8327
8325 8328
8325 8329
8326 8327
8326 8328
8326 8329
8326 8330
8327 8328
8327 8329
8327 8331
8328 8329
8328 8330
8328 8331
8328 8332
8329 8331
8329 8332
8329 8333
8330 8331
8330 8333
8330 8334
8330 9174
8331 8332
8331 8333
8331 8334
8331 8335
8332 8334
8332 8335
8332 8336
8333 8334
8333 8335
8333 8336
8333 8337
8334 8335
8334 8336
8334 8337
8335 8336
8335 8337
8335 8338
8335 8339
8336 8337
8336 8338
8336 8339
8336 8340
8337 8338
8337 8339
8337 8340
8337 8341
8338 8339
8338 8340
8338 8341
8338 8342
8339 8340
8339 8341
8339 8342
8339 8343
8340 8341
8340 8342
8340 8343
8340 8344
8341 8342
8341 8344
8341 8345
8342 8344
8342 8345
8342 8346
8343 8344
8343 8345
8343 8346
8343 8347
8344 8345
8344 8346
8344 8347
8344 8348
8345 8346
8345 8347
8345 8348
8345 8349
8346 8347
8346 8348
8346 8349
8346 8350
8347 8348
8347 8349
8347 8350
8347 8351
8348 8350
8348 8351
8348 8352
8349 8350
8349 8351
8349 8352
8349 8353
8350 8351
8350 8352
8350 8353
8351 8352
8351 8353
8351 8354
8351 8355
8352 8353
8352 8354
8352 8355
8352 8356
8353 8354
8353 8355
8353 8356
8353 8357
8354 8355
8354 8356
8354 8358
8355 8356
8355 8357
8355 8358
8355 8359
8356 8357
8356 8358
8356 8359
8356 8360
8357 8358
8357 8359
8357 8361
8357 8521
8358 8360
8358 8361
8359 8360
8359 8361
8359 8362
8359 8363
8360 8361
8360 8362
8360 8363
8360 8364
8361 8362
8361 8363
8361 8364
8362 8363
8362 8364
8362 8365
8362 8366
8363 8364
8363 8365
8363 8366
8363 8367
8364 8365
8364 8366
8364 8367
8364 8368
8365 8366
8365 8367
8365 8368
8365 8369
8366 8367
8366 8368
8366 8369
8366 8370
8367 8368
8367 8369
8367 8370
8367 8371
8368 8369
8368 8370
8368 8371
8368 8372
8369 8370
8369 8371
8369 8372
8369 8373
8370 8371
8370 8372
8370 8373
8370 8374
8371 8372
8371 8373
8371 8374
8371 8375
8372 8373
8372 8374
8372 8375
8372 8376
8373 8374
8373 8375
8373 8376
8373 8377
8374 8375
8374 8376
8374 8377
8374 8378
8374 9155
8375 8376
8375 8377
8375 8378
8375 8379
8376 8377
8376 8378
8376 8379
8376 8380
8377 8378
8377 8379
8377 8380
8377 8381
8378 8379
8378 8381
8378 8382
8379 8380
8379 8381
8379 8382
8379 8383
8380 8381
8380 8383
8380 8384
8381 8382
8381 8383
8381 8384
8381 8385
8382 8383
8382 8384
8382 8385
8382 8386
8383 8384
8383 8385
8383 8386
8383 8387
8384 8385
8384 8386
8384 8388
8384 9323
8385 8386
8385 8387
8385 8388
8385 8389
8386 8387
8386 8388
8386 8389
8386 8390
8387 8388
8387 8390
8387 8391
8387 9268
8388 8389
8388 8390
8388 8391
8388 8392
8389 8391
8389 8392
8389 8393
8390 8391
8390 8392
8390 8393
8390 8394
8390 9284
8391 8392
8391 8393
8391 8394
8391 8395
8392 8394
8392 8396
8392 8476
8393 8394
8393 8395
8393 8397
8394 8395
8394 8396
8394 8398
8395 8396
8395 8397
8395 8398
8395 8399
8396 8397
8396 8398
8396 8399
8396 8400
8397 8398
8397 8399
8397 8400
8397 8401
8398 8399
8398 8400
8398 8401
8398 8402
8399 8400
8399 8401
8399 8402
8399 8403
8400 8401
8400 8402
8400 8403
8401 8402
8401 8403
8401 8404
8401 8405
8402 8403
8402 8405
8402 8406
8403 8405
8403 8406
8403 8407
8404 8405
8404 8406
8404 8407
8404 8408
8404 8612
8405 8406
8405 8407
8405 8409
8405 9137
8406 8407
8406 8408
8406 8409
8406 8410
8407 8408
8407 8409
8407 8410
8407 8411
8408 8409
8408 8411
8408 8412
8409 8410
8409 8411
8409 8412
8409 8413
8410 8411
8410 8412
8410 8413
8410 8414
8411 8412
8411 8413
8411 8414
8411 8415
8412 8413
8412 8415
8412 8416
8413 8414
8413 8415
8413 8416
8414 8415
8414 8417
8414 8418
8415 8416
8415 8417
8415 8418
8415 8419
8416 8417
8416 8418
8416 8419
8416 8420
8417 8418
8417 8419
8417 8420
8417 8421
8418 8419
8418 8420
8418 8421
8418 8422
8419 8420
8419 8421
8419 8422
8419 8423
8420 8421
8420 8422
8420 8424
8420 9803
8421 8422
8421 8423
8421 8424
8421 8425
8422 8423
8422 8424
8422 8425
8422 8426
8423 8424
8423 8425
8423 8426
8423 8427
8424 8425
8424 8426
8424 8427
8424 8428
8425 8426
8425 8427
8425 8428
8425 8429
8426 8427
8426 8428
8426 8429
8427 8430
8427 8431
8428 8429
8428 8430
8428 8431
8428 8432
8429 8430
8429 8431
8429 8432
8429 8433
8430 8431
8430 8432
8430 8433
8430 8434
8431 8432
8431 8433
8431 8434
8431 8435
8431 8491
8432 8433
8432 8434
8432 8435
8432 8436
8433 8434
8433 8435
8433 8436
8433 8437
8434 8435
8434 8436
8434 8437
8434 8438
8434 9385
8435 8436
8435 8437
8435 8438
8435 8439
8436 8437
8436 8439
8437 8438
8437 8440
8437 8441
8438 8439
8438 8440
8438 8441
8438 8442
8439 8440
8439 8442
8439 8443
8440 8441
8440 8442
8440 8443
8440 8444
8441 8442
8441 8443
8441 8444
8441 8445
8442 8443
8442 8444
8442 8445
8442 8446
8443 8444
8443 8445
8443 8446
8443 8447
8444 8445
8444 8446
8444 8447
8445 8446
8445 8448
8445 8449
8446 8447
8446 8448
8446 8449
8446 8450
8447 8448
8447 8450
8447 8451
8447 8741
8448 8449
8448 8450
8448 8451
8449 8450
8449 8451
8449 8452
8449 8453
8449 8676
8450 8451
8450 8452
8450 8453
8451 8452
8451 8453
8451 8454
8452 8455
8452 8456
8452 8764
8453 8454
8453 8455
8453 8456
8453 8457
8454 8455
8454 8456
8454 8457
8454 8458
8454 9642
8455 8456
8455 8457
8455 8458
8455 8459
8456 8457
8456 8458
8456 8460
8457 8459
8457 8460
8457 8461
8458 8460
8458 8461
8458 8462
8459 8460
8459 8461
8459 8463
8460 8461
8460 8462
8460 8463
8460 8464
8461 8463
8461 8464
8461 8465
8462 8463
8462 8464
8462 8465
8462 8466
8463 8464
8463 8465
8463 8466
8463 8467
8463 8618
8464 8465
8464 8466
8464 8467
8464 8468
8465 8466
8465 8467
8465 8468
8465 8469
8466 8468
8466 8469
8466 8470
8467 8469
8467 8470
8467 8471
8468 8469
8468 8470
8468 8471
8468 8472
8469 8470
8469 8471
8469 8472
8469 8473
8470 8471
8470 8472
8470 8473
8470 8474
8471 8472
8471 8473
8471 8475
8472 8473
8472 8474
8472 8475
8472 8476
8473 8476
8473 8477
8474 8475
8474 8476
8474 8477
8474 8478
8475 8477
8475 8478
8475 8479
8476 8477
8476 8478
8476 8479
8476 8480
8477 8478
8477 8479
8477 8480
8477 8481
8478 8479
8478 8480
8478 8481
8478 8482
8479 8480
8479 8481
8479 8482
8479 8483
8480 8481
8480 8482
8480 8483
8480 8484
8481 8482
8481 8483
8481 8484
8481 8485
8482 8483
8482 8484
8482 8486
8482 9896
8483 8484
8483 8485
8483 8486
8483 8487
8484 8485
8484 8486
8484 8487
8484 8488
8485 8486
8485 8487
8485 8488
8485 8489
8485 8881
8486 8487
8486 8488
8486 8489
8486 8490
8486 8772
8487 8488
8487 8489
8487 8491
8488 8489
8488 8491
8488 8492
8489 8490
8489 8491
8489 8492
8489 8493
8490 8491
8490 8493
8490 8494
8491 8492
8491 8493
8491 8494
8492 8493
8492 8494
8492 8495
8492 8496
8493 8494
8493 8496
8493 8497
8494 8495
8494 8496
8494 8497
8494 9439
8495 8496
8495 8497
8495 8498
8496 8498
8496 8499
8496 8500
8497 8498
8497 8499
8497 8500
8497 8501
8498 8499
8498 8500
8498 8502
8499 8500
8499 8501
8499 8502
8500 8501
8500 8502
8500 8503
8500 8504
8501 8502
8501 8503
8501 8504
8501 8505
8501 9376
8502 8503
8502 8504
8502 8505
8502 8506
8502 9342
8503 8504
8503 8505
8503 8506
8503 8507
8504 8505
8504 8506
8504 8507
8504 8508
8504 9321
8505 8506
8505 8507
8505 8508
8505 8509
8506 8508
8506 8509
8506 8510
8507 8508
8507 8509
8507 8510
8507 8511
8508 8509
8508 8510
8508 8511
8508 8512
8509 8511
8509 8512
8509 8513
8510 8511
8510 8512
8510 8513
8510 8514
8511 8512
8511 8514
8511 8515
8512 8513
8512 8514
8512 8515
8512 8516
8513 8514
8513 8515
8513 8516
8513 8517
8514 8515
8514 8516
8514 8517
8514 8518
8514 8869
8515 8516
8515 8517
8515 8518
8515 8519
8516 8517
8516 8518
8516 8519
8516 8520
8517 8518
8517 8519
8517 8520
8517 8521
8518 8519
8518 8520
8518 8521
8518 8522
8519 8520
8519 8521
8519 8522
8519 8523
8520 8521
8520 8522
8520 8523
8520 8524
8521 8523
8521 8524
8521 8525
8522 8523
8522 8524
8522 8525
8523 8525
8523 8526
8523 8527
8524 8525
8524 8526
8524 8527
8524 8528
8525 8526
8525 8527
8525 8528
8526 8527
8526 8528
8526 8529
8526 8530
8527 8528
8527 8529
8528 8529
8528 8530
8528 8531
8528 8532
8529 8530
8529 8531
8529 8532
8529 8533
8530 8532
8530 8533
8530 8534
8531 8533
8531 8534
8531 8535
8532 8534
8532 8535
8532 8536
8533 8534
8533 8535
8533 8536
8533 8537
8534 8535
8534 8536
8534 8538
8535 8536
8535 8537
8535 8538
8535 8539
8536 8537
8536 8538
8536 8539
8536 8540
8537 8538
8537 8539
8537 8540
8537 8541
8538 8539
8538 8540
8538 8541
8538 8542
8538 9953
8539 8540
8539 8541
8539 8542
8539 8543
8540 8541
8540 8542
8540 8543
8541 8542
8541 8543
8541 8544
8541 8545
8541 9409
8542 8543
8542 8544
8542 8545
8542 8546
8543 8545
8543 8546
8543 8547
8544 8545
8544 8546
8544 8547
8544 8548
8545 8546
8545 8547
8545 8548
8545 8549
8546 8547
8546 8549
8546 8550
8547 8548
8547 8549
8547 8550
8547 8551
8548 8549
8548 8550
8548 8551
8548 8552
8549 8550
8549 8551
8549 8552
8550 8551
8550 8552
8550 8553
8550 8554
8550 8856
8551 8552
8551 8553
8551 8555
8551 8599
8552 8553
8552 8554
8552 8555
8552 8556
8553 8554
8553 8555
8553 8556
8553 8557
8554 8556
8554 8557
8554 8558
8555 8556
8555 8557
8555 8558
8555 8559
8555 9807
8556 8557
8556 8559
8556 8560
8557 8558
8557 8559
8557 8561
8558 8559
8558 8560
8558 8561
8558 8562
8559 8560
8559 8562
8559 8563
8560 8561
8560 8562
8560 8563
8560 8564
8561 8562
8561 8563
8561 8564
8561 8565
8562 8563
8562 8564
8562 8565
8562 8566
8563 8564
8563 8565
8563 8566
8563 8567
8564 8566
8564 8567
8564 8568
8565 8567
8565 8568
8565 8569
8566 8567
8566 8568
8566 8569
8566 8570
8567 8568
8567 8569
8567 8571
8568 8569
8568 8571
8568 8572
8569 8570
8569 8572
8569 8573
8570 8571
8570 8572
8570 8573
8570 9598
8571 8572
8571 8573
8571 8574
8571 8575
8571 9619
8572 8573
8572 8574
8572 8575
8572 8576
8573 8574
8573 8576
8573 8577
8573 8820
8574 8575
8574 8576
8574 8577
8574 8578
8575 8576
8575 8577
8575 8578
8575 8579
8576 8577
8576 8578
8576 8579
8576 8580
8577 8578
8577 8579
8577 8580
8577 8581
8578 8579
8578 8581
8578 8582
8579 8580
8579 8581
8579 8583
8580 8581
8580 8582
8580 8583
8580 8584
8581 8582
8581 8583
8581 8584
8581 8585
8582 8583
8582 8584
8582 8585
8582 8586
8583 8584
8583 8585
8583 8586
8584 8585
8584 8587
8584 8588
8585 8586
8585 8587
8585 8588
8585 8589
8586 8588
8586 8589
8586 8590
8587 8588
8587 8589
8587 8590
8587 8591
8588 8589
8588 8590
8588 8591
8588 8592
8589 8591
8589 8592
8589 8593
8590 8591
8590 8592
8590 8593
8590 8594
8591 8592
8591 8593
8591 8594
8591 8595
8592 8593
8592 8594
8592 8595
8592 8596
8593 8594
8593 8595
8593 8596
8593 9756
8594 8595
8594 8596
8594 8597
8594 8598
8595 8596
8595 8597
8595 8598
8595 8599
8596 8597
8596 8598
8596 8599
8597 8598
8597 8599
8597 8600
8597 9025
8598 8599
8598 8600
8598 8601
8598 8602
8599 8600
8599 8601
8599 8602
8599 8603
8600 8602
8600 8603
8600 8604
8600 9889
8601 8602
8601 8604
8601 8605
8602 8603
8602 8604
8602 8605
8603 8604
8603 8605
8603 8606
8604 8605
8604 8607
8604 8608
8605 8606
8605 8607
8605 8608
8605 8609
8606 8607
8606 8608
8606 8609
8606 8610
8607 8608
8607 8609
8607 8610
8608 8609
8608 8610
8608 8611
8608 8612
8609 8610
8609 8611
8609 8612
8609 8613
8610 8611
8610 8612
8610 8613
8610 8614
8611 8612
8611 8613
8611 8614
8611 8615
8612 8614
8612 8615
8612 8616
8613 8614
8613 8616
8613 8617
8614 8615
8614 8616
8614 8617
8614 8618
8615 8616
8615 8617
8615 8618
8615 8619
8616 8618
8616 8619
8616 8620
8617 8618
8617 8619
8617 8620
8617 8621
8618 8619
8618 8620
8618 8622
8619 8620
8619 8622
8619 8623
8620 8621
8620 8622
8620 8623
8620 8624
8621 8622
8621 8623
8621 8624
8621 8625
8622 8623
8622 8624
8622 8625
8622 8626
8623 8624
8623 8625
8623 8626
8623 8627
8624 8627
8624 8628
8624 8944
8625 8626
8625 8627
8625 8628
8625 8629
8626 8627
8626 8629
8626 8630
8627 8628
8627 8629
8627 8630
8627 8631
8628 8629
8628 8632
8629 8630
8629 8631
8629 8632
8629 8633
8630 8631
8630 8632
8630 8633
8630 8634
8631 8632
8631 8635
8631 9799
8632 8633
8632 8634
8632 8635
8632 8636
8633 8634
8633 8635
8633 8636
8633 8637
8634 8635
8634 8636
8634 8637
8634 8638
8635 8637
8635 8638
8635 8639
8636 8637
8636 8638
8636 8639
8636 8640
8637 8638
8637 8639
8637 8641
8637 9300
8638 8639
8638 8640
8638 8641
8639 8640
8639 8641
8639 8642
8639 8643
8640 8641
8640 8642
8640 8643
8640 8644
8641 8642
8641 8643
8641 8644
8641 8645
8642 8643
8642 8644
8642 8645
8642 8646
8643 8644
8643 8645
8643 8646
8643 8647
8644 8645
8644 8646
8644 8647
8644 8648
8645 8646
8645 8647
8645 8648
8645 8649
8646 8647
8646 8648
8646 8649
8646 8650
8647 8648
8647 8649
8647 8650
8647 8651
8648 8649
8648 8650
8648 8651
8648 8652
8649 8650
8649 8651
8649 8652
8649 8653
8650 8651
8650 8652
8650 8653
8650 8654
8651 8652
8651 8653
8651 8654
8652 8653
8652 8654
8652 8655
8652 8656
8653 8654
8653 8655
8653 8656
8653 8657
8654 8655
8654 8656
8654 8657
8654 8658
8655 8656
8655 8657
8655 8658
8655 8659
8656 8657
8656 8658
8656 8660
8657 8658
8657 8659
8657 8660
8657 8661
8658 8659
8658 8660
8658 8661
8658 8662
8659 8660
8659 8661
8659 8662
8659 8663
8660 8661
8660 8662
8660 8663
8660 8664
8661 8662
8661 8663
8661 8664
8661 8665
8662 8663
8662 8666
8663 8665
8663 8666
8663 8667
8664 8665
8664 8666
8664 8667
8664 8668
8665 8666
8665 8667
8665 8668
8665 8669
8666 8667
8666 8668
8666 8669
8666 8670
8667 8668
8667 8669
8667 8670
8667 8671
8668 8669
8668 8670
8668 8671
8669 8670
8669 8671
8669 8672
8669 8673
8670 8671
8670 8672
8670 8673
8671 8672
8671 8674
8671 8675
8672 8673
8672 8674
8672 8675
8672 8676
8673 8674
8673 8675
8673 8676
8673 8677
8674 8675
8674 8676
8674 8677
8675 8676
8675 8677
8675 8678
8676 8678
8676 8679
8676 8680
8677 8678
8677 8679
8677 8681
8678 8679
8678 8680
8678 8682
8679 8680
8679 8681
8679 8682
8679 8683
8680 8681
8680 8682
8680 8684
8681 8682
8681 8684
8681 8685
8682 8683
8682 8684
8682 8685
8682 8686
8683 8684
8683 8685
8683 8686
8683 8687
8684 8685
8684 8686
8684 8687
8684 8688
8685 8686
8685 8687
8685 8688
8685 8689
8686 8687
8686 8688
8686 8689
8686 8690
8687 8688
8687 8689
8687 8690
8687 8691
8688 8689
8688 8690
8688 8691
8689 8690
8689 8691
8689 8692
8689 8693
8690 8691
8690 8692
8690 8693
8690 8694
8691 8692
8691 8693
8691 8694
8691 8695
8692 8693
8692 8694
8692 8695
8692 8696
8693 8694
8693 8695
8693 8696
8693 8697
8694 8695
8694 8696
8694 8697
8694 8698
8695 8696
8695 8697
8695 8698
8695 8699
8696 8697
8696 8698
8696 8699
8696 8700
8697 8698
8697 8699
8697 8700
8697 8701
8698 8699
8698 8700
8698 8701
8699 8700
8699 8701
8699 8702
8699 8703
8700 8701
8700 8702
8700 8703
8700 8704
8701 8702
8701 8704
8701 8705
8702 8703
8702 8704
8702 8705
8702 8706
8703 8704
8703 8705
8703 8706
8703 8707
8704 8705
8704 8706
8704 8708
8705 8706
8705 8707
8705 8709
8705 9065
8706 8707
8706 8708
8706 8709
8706 8710
8707 8708
8707 8709
8707 8710
8707 8711
8708 8709
8708 8710
8708 8711
8708 8712
8708 9823
8709 8710
8709 8712
8709 8713
8710 8711
8710 8712
8710 8713
8710 8714
8711 8712
8711 8713
8711 8714
8711 8715
8712 8713
8712 8714
8712 8716
8713 8714
8713 8715
8713 8716
8713 8717
8714 8715
8714 8716
8714 8718
8715 8716
8715 8717
8715 8718
8715 8719
8716 8717
8716 8718
8716 8719
8716 8720
8717 8718
8717 8719
8717 8720
8717 8721
8718 8719
8718 8720
8718 8721
8718 8722
8719 8720
8719 8721
8719 8723
8720 8721
8720 8722
8720 8723
8720 8724
8720 9314
8721 8722
8721 8724
8721 8725
8722 8723
8722 8724
8722 8725
8722 8726
8723 8724
8723 8725
8723 8726
8723 8727
8724 8725
8724 8726
8724 8727
8724 8728
8725 8726
8725 8727
8725 8728
8725 8729
8726 8727
8726 8728
8726 8729
8726 8730
8727 8728
8727 8729
8727 8730
8727 8731
8728 8729
8728 8730
8728 8731
8728 8732
8728 8841
8729 8730
8729 8731
8729 8732
8729 8733
8730 8731
8730 8732
8730 8733
8730 8734
8731 8732
8731 8733
8731 8734
8731 8735
8732 8733
8732 8734
8732 8735
8732 8736
8733 8734
8733 8735
8733 8737
8734 8736
8734 8737
8734 8738
8735 8736
8735 8737
8735 8738
8735 8739
8736 8737
8736 8738
8736 8739
8736 8740
8737 8738
8737 8739
8737 8740
8737 8741
8738 8739
8738 8741
8738 8742
8739 8740
8739 8741
8739 8742
8739 8743
8740 8741
8740 8742
8740 8744
8741 8742
8741 8743
8741 8744
8741 8745
8742 8743
8742 8744
8742 8746
8743 8745
8743 8746
8743 8747
8744 8745
8744 8746
8744 8747
8744 8748
8745 8746
8745 8747
8745 8748
8745 8749
8746 8747
8746 8748
8746 8749
8746 8750
8747 8749
8747 8750
8747 8751
8747 9692
8748 8750
8748 8751
8748 8752
8749 8750
8749 8751
8749 8752
8749 8753
8750 8751
8750 8752
8750 8753
8750 8754
8751 8752
8751 8753
8751 8754
8751 8755
8752 8753
8752 8754
8752 8755
8752 8756
8753 8754
8753 8755
8753 8757
8754 8755
8754 8756
8754 8757
8754 8758
8755 8756
8755 8757
8755 8758
8755 8759
8756 8757
8756 8758
8756 8759
8756 8760
8757 8759
8757 8760
8757 8761
8758 8759
8758 8760
8758 8761
8758 8762
8759 8760
8759 8761
8759 8762
8759 8763
8760 8761
8760 8762
8760 8763
8761 8762
8761 8763
8761 8764
8761 8765
8762 8763
8762 8765
8762 8766
8763 8764
8763 8765
8763 8766
8764 8765
8764 8766
8764 8767
8764 8768
8765 8766
8765 8767
8765 8768
8765 8769
8766 8767
8766 8768
8766 8769
8766 8770
8767 8768
8767 8769
8767 8771
8768 8770
8768 8771
8768 8772
8769 8770
8769 8771
8769 8772
8769 8773
8770 8771
8770 8772
8770 8773
8770 8774
8771 8772
8771 8773
8771 8774
8771 8775
8772 8773
8772 8774
8772 8775
8773 8774
8773 8775
8773 8776
8773 8777
8774 8775
8774 8776
8774 8777
8774 8778
8775 8777
8775 8778
8775 8779
8775 9199
8776 8777
8776 8778
8776 8779
8776 8780
8777 8778
8777 8779
8777 8843
8778 8779
8778 8780
8778 8781
8778 8782
8779 8780
8779 8781
8779 8782
8779 8783
8780 8782
8780 8783
8780 8784
8781 8782
8781 8783
8781 8784
8781 8785
8782 8785
8782 8786
8783 8784
8783 8785
8783 8786
8783 8787
8784 8785
8784 8786
8784 8787
8785 8786
8785 8787
8785 8788
8785 8789
8786 8787
8786 8788
8786 8789
8786 8790
8787 8788
8787 8789
8787 8790
8787 8791
8788 8789
8788 8790
8788 8791
8788 8792
8789 8791
8789 8792
8789 8793
8790 8791
8790 8792
8790 8793
8790 8794
8790 9694
8790 9621
8791 8792
8791 8793
8791 8794
8791 8795
8792 8793
8792 8794
8792 8795
8792 8796
8793 8794
8793 8795
8793 8796
8793 8797
8794 8795
8794 8796
8794 8797
8795 8797
8795 8798
8795 8799
8796 8797
8796 8798
8796 8800
8797 8798
8797 8799
8797 8800
8797 8801
8798 8799
8798 8800
8798 8801
8798 8802
8799 8800
8799 8801
8799 8802
8799 8803
8800 8801
8800 8802
8801 8802
8801 8803
8801 8804
8801 8805
8802 8803
8802 8804
8802 8805
8802 8806
8803 8805
8803 8806
8803 8807
8804 8805
8804 8806
8804 8807
8804 8808
8805 8806
8805 8807
8805 8808
8806 8807
8806 8808
8806 8809
8807 8808
8807 8809
8807 8810
8808 8809
8808 8810
8808 8811
8808 8812
8809 8811
8809 8812
8809 8813
8809 9665
8810 8811
8810 8813
8810 8814
8811 8812
8811 8813
8811 8814
8812 8814
8812 8815
8812 8816
8813 8814
8813 8815
8813 8816
8813 8817
8814 8815
8814 8817
8815 8816
8815 8817
8815 8818
8815 8819
8816 8817
8816 8818
8816 8819
8816 8820
8817 8818
8817 8819
8817 8820
8817 8821
8818 8819
8818 8820
8818 8821
8818 8822
8819 8820
8819 8821
8820 8821
8820 8822
8820 8823
8820 8824
8821 8822
8821 8823
8821 8824
8822 8823
8822 8824
8822 8825
8822 8826
8823 8825
8823 8826
8823 8827
8824 8825
8824 8826
8824 8827
8824 8828
8825 8826
8825 8827
8825 8828
8825 8829
8826 8827
8826 8828
8826 8829
8826 8830
8827 8828
8827 8829
8827 8830
8827 8831
8828 8829
8828 8830
8828 8831
8828 8832
8829 8830
8829 8831
8829 8832
8830 8831
8830 8832
8830 8833
8831 8832
8831 8833
8831 8834
8831 8835
8832 8833
8832 8835
8832 8836
8833 8834
8833 8835
8833 8836
8833 8837
8834 8835
8834 8836
8834 8837
8834 8838
8835 8837
8835 8838
8835 8839
8836 8837
8836 8838
8836 8839
8836 8840
8837 8838
8837 8839
8837 8840
8837 8841
8838 8839
8838 8840
8838 8841
8838 8842
8839 8840
8839 8841
8839 8842
8839 8843
8840 8841
8840 8842
8841 8842
8841 8844
8841 8845
8842 8843
8842 8844
8842 8845
8842 8846
8843 8844
8843 8845
8843 8846
8843 8847
8844 8845
8844 8846
8844 8847
8844 8848
8845 8846
8845 8847
8845 8848
8845 8849
8846 8847
8846 8849
8846 8850
8847 8849
8847 8850
8847 8851
8848 8849
8848 8850
8848 8851
8848 8852
8849 8850
8849 8851
8849 8852
8849 8853
8850 8851
8850 8852
8850 8853
8850 8861
8851 8852
8851 8854
8851 8855
8851 9205
8852 8853
8852 8854
8852 8855
8852 8856
8853 8854
8853 8855
8853 8857
8854 8855
8854 8856
8854 8857
8854 8858
8855 8856
8855 8857
8855 8858
8855 8859
8856 8857
8856 8859
8857 8858
8857 8859
8857 8861
8858 8859
8858 8860
8858 8861
8858 8862
8859 8860
8859 8861
8859 8862
8859 8863
8860 8861
8860 8862
8860 8863
8860 8864
8861 8863
8861 8864
8861 8865
8862 8863
8862 8864
8862 8865
8863 8864
8863 8865
8863 8867
8864 8865
8864 8867
8864 8868
8864 9481
8865 8866
8865 8867
8865 8868
8865 8869
8866 8868
8866 8870
8867 8868
8867 8869
8867 8870
8867 8871
8868 8869
8868 8870
8868 8871
8869 8872
8870 8872
8870 8873
8870 8874
8871 8873
8871 8874
8871 8875
8872 8875
8872 8876
8873 8874
8873 8875
8873 8876
8873 8877
8874 8875
8874 8876
8874 8877
8874 8878
8875 8876
8875 8877
8875 8879
8876 8877
8876 8878
8876 8879
8876 8880
8877 8878
8877 8879
8877 8880
8877 8881
8877 9251
8878 8879
8878 8880
8878 8881
8878 8882
8879 8880
8879 8881
8879 8882
8880 8881
8880 8882
8880 8883
8880 8884
8881 8882
8881 8884
8881 8885
8882 8883
8882 8884
8882 8885
8882 8886
8883 8884
8883 8885
8883 8886
8883 8887
8883 8941
8884 8885
8884 8886
8884 8887
8884 8888
8885 8886
8885 8887
8885 8888
8885 8889
8886 8887
8886 8888
8886 8889
8886 8890
8887 8888
8887 8889
8887 8890
8888 8889
8888 8890
8888 8891
8888 8892
8889 8890
8889 8891
8889 8892
8889 8893
8890 8891
8890 8892
8890 8893
8890 8894
8891 8893
8891 8894
8891 8895
8892 8893
8892 8894
8892 8895
8892 8896
8893 8894
8893 8895
8893 8896
8893 8897
8894 8895
8894 8896
8894 8897
8894 8898
8895 8896
8895 8897
8895 8898
8895 8899
8896 8897
8896 8898
8896 8899
8896 8900
8897 8898
8897 8899
8897 8900
8897 8901
8898 8901
8898 8902
8899 8900
8899 8901
8899 8903
8900 8901
8900 8902
8900 8904
8901 8902
8901 8903
8901 8904
8902 8903
8902 8904
8902 8905
8902 8906
8903 8904
8903 8905
8903 8906
8903 8907
8904 8905
8904 8906
8904 8908
8905 8906
8905 8907
8905 8909
8906 8907
8906 8908
8906 8909
8906 8910
8907 8908
8907 8909
8907 8911
8907 9765
8908 8909
8908 8911
8908 8912
8909 8911
8909 8912
8909 8957
8909 9149
8910 8911
8910 8913
8911 8912
8911 8913
8911 8914
8911 8915
8912 8913
8912 8914
8912 8915
8912 8916
8913 8914
8913 8916
8913 8917
8914 8915
8914 8916
8914 8917
8914 8918
8915 8916
8915 8917
8915 8918
8915 8919
8916 8917
8916 8918
8916 8919
8917 8918
8917 8920
8917 8921
8918 8919
8918 8920
8919 8920
8919 8921
8919 8922
8919 8923
8920 8921
8920 8922
8920 8923
8920 8924
8921 8923
8921 8924
8921 8925
8921 9560
8922 8923
8922 8924
8922 8925
8922 8926
8923 8924
8923 8925
8923 8926
8923 8927
8924 8925
8924 8926
8924 8927
8924 8928
8925 8926
8925 8927
8925 8928
8925 8929
8926 8927
8926 8928
8926 8929
8926 8930
8927 8928
8927 8929
8927 8930
8927 8931
8928 8929
8928 8930
8928 8931
8928 8932
8929 8930
8929 8931
8929 8933
8930 8931
8930 8932
8930 8933
8931 8932
8931 8933
8931 8934
8931 8935
8932 8933
8932 8934
8932 8935
8932 8936
8933 8935
8933 8936
8934 8935
8934 8936
8934 8937
8934 8938
8935 8936
8935 8937
8935 8938
8935 8939
8936 8937
8936 8938
8936 8939
8936 8940
8937 8938
8937 8939
8937 8940
8938 8939
8938 8940
8938 8941
8938 8942
8939 8940
8939 8942
8939 8943
8940 8941
8940 8942
8940 8943
8940 8944
8941 8942
8941 8943
8941 8945
8942 8943
8942 8944
8942 8945
8942 8946
8943 8944
8943 8945
8943 8946
8943 8947
8944 8945
8944 8946
8944 8947
8944 8948
8945 8946
8945 8947
8945 8949
8946 8947
8946 8948
8946 8949
8946 8950
8947 8948
8947 8949
8947 8950
8947 8951
8948 8949
8948 8952
8949 8950
8949 8951
8949 8952
8949 8953
8949 9849
8950 8951
8950 8953
8950 8954
8951 8952
8951 8953
8951 8954
8951 8955
8952 8953
8952 8954
8952 8955
8952 8956
8953 8955
8953 8956
8953 8957
8953 9645
8954 8955
8954 8956
8954 8957
8954 8958
8954 9515
8955 8956
8955 8957
8955 8959
8956 8957
8956 8958
8956 8959
8956 8960
8957 8958
8957 8959
8957 8960
8957 8961
8958 8959
8958 8960
8958 8961
8958 8962
8959 8961
8959 8962
8959 8963
8960 8961
8960 8963
8960 8964
8961 8962
8961 8963
8961 8964
8961 8965
8962 8963
8962 8964
8962 8965
8962 8966
8963 8965
8963 8966
8963 8967
8964 8965
8964 8966
8964 8967
8964 8968
8965 8966
8965 8967
8965 8968
8965 8969
8966 8968
8966 8969
8967 8968
8967 8969
8967 8970
8967 8971
8968 8969
8968 8970
8968 8971
8968 8972
8969 8970
8969 8971
8969 8972
8969 8973
8970 8971
8970 8972
8970 8973
8970 8974
8971 8972
8971 8973
8971 8974
8971 8975
8972 8973
8972 8974
8972 8976
8973 8974
8973 8975
8973 8976
8973 8977
8974 8975
8974 8976
8974 8977
8974 8978
8975 8976
8975 8977
8975 8978
8975 8979
8976 8977
8976 8978
8976 8979
8976 8980
8977 8978
8977 8979
8977 8980
8977 8981
8978 8979
8978 8980
8978 8981
8978 8982
8979 8980
8979 8981
8979 8982
8979 8983
8980 8981
8980 8982
8980 8983
8980 8984
8981 8982
8982 8983
8982 8984
8982 8986
8982 9013
8983 8985
8983 8986
8983 8987
8984 8986
8984 8987
8984 8988
8985 8986
8985 8987
8985 8989
8985 9301
8986 8987
8986 8989
8986 8990
8987 8990
8987 8991
8988 8989
8988 8990
8988 8991
8988 8992
8989 8990
8989 8991
8989 8992
8989 8993
8990 8991
8990 8992
8990 8993
8991 8994
8991 8995
8991 9636
8992 8994
8992 8995
8992 8996
8992 9646
8993 8994
8993 8995
8993 8996
8993 8997
8994 8995
8994 8996
8994 8997
8994 8998
8995 8996
8995 8997
8995 8998
8995 8999
8996 8997
8996 8998
8996 8999
8996 9000
8997 8998
8997 8999
8997 9000
8997 9001
8998 8999
8998 9000
8998 9001
8998 9002
8999 9000
8999 9001
8999 9002
8999 9003
9000 9001
9000 9002
9000 9003
9000 9004
9001 9002
9001 9003
9001 9004
9002 9003
9002 9004
9002 9005
9002 9006
9002 9138
9003 9004
9003 9005
9003 9006
9003 9007
9004 9005
9004 9006
9004 9007
9004 9008
9005 9007
9005 9008
9005 9009
9006 9007
9006 9008
9006 9009
9006 9010
9007 9008
9007 9009
9007 9010
9007 9011
9008 9009
9008 9010
9008 9367
9009 9010
9009 9011
9009 9012
9009 9013
9010 9011
9010 9012
9010 9013
9011 9012
9011 9013
9011 9014
9011 9015
9012 9013
9012 9014
9012 9015
9012 9016
9013 9014
9013 9015
9013 9016
9014 9015
9014 9016
9014 9017
9014 9018
9015 9016
9015 9017
9015 9018
9015 9019
9016 9017
9016 9018
9016 9019
9016 9020
9017 9018
9017 9019
9017 9020
9017 9021
9018 9019
9018 9021
9018 9022
9019 9020
9019 9021
9019 9022
9019 9023
9020 9022
9020 9023
9020 9024
9021 9023
9021 9025
9022 9023
9022 9024
9022 9025
9022 9026
9023 9024
9023 9025
9023 9026
9024 9025
9024 9026
9024 9027
9024 9028
9025 9026
9025 9027
9025 9028
9025 9029
9026 9027
9026 9028
9026 9029
9026 9030
9026 9424
9027 9028
9027 9029
9027 9030
9027 9031
9028 9029
9028 9031
9029 9030
9029 9031
9029 9032
9029 9033
9030 9031
9030 9032
9030 9033
9030 9034
9031 9032
9031 9034
9031 9035
9032 9033
9032 9035
9032 9036
9033 9034
9033 9035
9033 9036
9033 9037
9034 9035
9034 9036
9034 9037
9034 9038
9035 9036
9035 9037
9035 9038
9035 9049
9036 9037
9036 9038
9036 9039
9036 9040
9037 9038
9037 9039
9037 9040
9037 9041
9038 9039
9038 9040
9038 9041
9038 9042
9039 9040
9039 9041
9039 9042
9039 9043
9040 9041
9040 9042
9040 9043
9040 9044
9041 9042
9041 9043
9041 9044
9042 9043
9042 9044
9042 9045
9042 9046
9043 9044
9043 9045
9043 9046
9043 9047
9044 9045
9044 9046
9044 9047
9044 9048
9044 9192
9045 9047
9045 9048
9045 9049
9046 9047
9046 9048
9046 9049
9046 9050
9047 9048
9047 9049
9047 9051
9048 9049
9048 9050
9048 9051
9048 9052
9049 9050
9049 9052
9049 9053
9050 9051
9050 9053
9050 9054
9051 9052
9051 9053
9051 9054
9051 9055
9052 9053
9052 9054
9052 9055
9052 9056
9053 9054
9053 9055
9053 9056
9054 9055
9054 9056
9054 9057
9054 9058
9055 9056
9055 9057
9055 9059
9056 9057
9056 9058
9056 9059
9056 9060
9057 9058
9057 9059
9057 9060
9058 9059
9058 9060
9058 9061
9058 9062
9059 9060
9059 9061
9059 9062
9059 9063
9060 9061
9060 9062
9060 9063
9060 9064
9061 9063
9061 9064
9061 9065
9062 9063
9062 9064
9062 9065
9062 9066
9063 9064
9063 9065
9063 9066
9063 9067
9064 9065
9064 9066
9064 9067
9064 9068
9065 9067
9065 9068
9065 9069
9066 9067
9066 9068
9066 9069
9066 9070
9067 9068
9067 9069
9067 9070
9067 9071
9068 9070
9068 9071
9068 9072
9069 9070
9069 9071
9069 9072
9069 9073
9070 9071
9070 9072
9070 9073
9070 9074
9071 9072
9071 9073
9071 9074
9071 9075
9072 9073
9072 9074
9072 9075
9072 9076
9073 9074
9073 9075
9073 9076
9073 9077
9074 9075
9074 9076
9074 9077
9074 9078
9075 9076
9075 9077
9075 9078
9075 9079
9075 9128
9076 9077
9076 9078
9076 9079
9076 9080
9077 9078
9077 9079
9077 9080
9077 9081
9078 9079
9078 9080
9078 9081
9078 9082
9079 9080
9079 9081
9079 9082
9080 9081
9080 9082
9080 9083
9080 9084
9081 9082
9081 9083
9081 9084
9082 9083
9082 9084
9082 9085
9082 9086
9083 9085
9083 9086
9084 9086
9084 9087
9084 9088
9085 9086
9085 9088
9085 9089
9085 9432
9086 9087
9086 9089
9086 9090
9087 9088
9087 9089
9087 9090
9087 9091
9088 9089
9088 9090
9088 9091
9088 9092
9089 9091
9089 9092
9089 9093
9090 9091
9090 9092
9090 9093
9090 9094
9091 9092
9091 9093
9091 9094
9091 9095
9092 9093
9092 9094
9092 9095
9092 9096
9093 9094
9093 9095
9093 9097
9094 9095
9094 9096
9094 9097
9094 9098
9095 9096
9095 9098
9095 9099
9096 9099
9096 9100
9097 9098
9097 9099
9097 9100
9097 9101
9097 9787
9098 9099
9098 9100
9098 9101
9098 9102
9099 9101
9099 9102
9099 9103
9100 9101
9100 9102
9100 9103
9101 9103
9101 9104
9101 9105
9102 9103
9102 9104
9102 9106
9103 9104
9103 9105
9103 9106
9103 9107
9104 9105
9104 9106
9104 9107
9104 9108
9105 9106
9105 9107
9105 9108
9106 9107
9106 9108
9106 9109
9106 9110
9107 9108
9107 9109
9107 9110
9108 9109
9108 9110
9108 9111
9109 9110
9109 9111
9109 9112
9109 9113
9110 9111
9110 9112
9110 9113
9110 9114
9111 9112
9111 9113
9111 9114
9111 9115
9112 9113
9112 9114
9112 9115
9113 9114
9113 9115
9113 9116
9114 9115
9114 9116
9114 9117
9114 9118
9115 9116
9115 9117
9115 9118
9115 9119
9116 9117
9116 9118
9116 9119
9116 9120
9117 9118
9117 9119
9117 9120
9117 9121
9118 9119
9118 9120
9118 9121
9118 9122
9119 9120
9119 9121
9119 9122
9119 9123
9120 9121
9120 9122
9120 9123
9120 9124
9121 9122
9121 9123
9121 9124
9122 9123
9122 9124
9122 9125
9122 9126
9123 9124
9123 9125
9123 9126
9123 9127
9124 9125
9124 9126
9124 9127
9124 9128
9125 9126
9125 9127
9125 9128
9125 9129
9126 9127
9126 9128
9126 9129
9127 9128
9127 9129
9127 9130
9128 9129
9128 9130
9128 9132
9128 9354
9129 9131
9129 9132
9129 9133
9130 9131
9130 9132
9130 9133
9130 9134
9131 9132
9131 9133
9131 9134
9131 9135
9132 9133
9132 9135
9132 9136
9133 9134
9133 9135
9133 9136
9133 9137
9134 9136
9134 9137
9134 9138
9135 9136
9135 9139
9136 9137
9136 9138
9136 9139
9136 9140
9137 9138
9137 9139
9137 9140
9137 9141
9137 9527
9137 9642
9138 9139
9138 9140
9138 9142
9139 9140
9139 9141
9139 9142
9139 9143
9140 9141
9140 9142
9140 9143
9140 9144
9141 9142
9141 9143
9141 9144
9141 9145
9142 9143
9142 9145
9142 9146
9142 9635
9143 9144
9143 9145
9143 9146
9143 9147
9144 9145
9144 9146
9144 9147
9144 9148
9145 9146
9145 9147
9145 9148
9145 9149
9146 9147
9146 9148
9146 9149
9146 9150
9147 9148
9147 9149
9147 9150
9147 9151
9148 9149
9148 9150
9148 9151
9148 9152
9149 9150
9149 9153
9150 9151
9150 9152
9150 9153
9150 9154
9151 9154
9151 9155
9152 9153
9152 9154
9152 9155
9152 9156
9153 9154
9153 9155
9153 9156
9153 9157
9154 9156
9154 9157
9154 9158
9155 9157
9155 9158
9155 9159
9156 9157
9156 9158
9156 9159
9156 9160
9157 9158
9157 9159
9157 9160
9157 9161
9158 9159
9158 9160
9158 9161
9158 9162
9159 9160
9159 9161
9159 9162
9159 9163
9160 9161
9160 9162
9160 9163
9160 9164
9161 9162
9161 9163
9161 9164
9161 9165
9162 9163
9162 9164
9162 9165
9162 9166
9163 9164
9163 9165
9163 9166
9163 9167
9164 9165
9164 9166
9164 9167
9165 9166
9165 9167
9165 9168
9166 9167
9166 9168
9166 9169
9166 9170
9167 9168
9167 9169
9167 9170
9167 9171
9168 9169
9168 9170
9168 9171
9168 9172
9169 9170
9169 9171
9169 9172
9169 9173
9170 9171
9170 9172
9170 9173
9170 9174
9170 9961
9171 9172
9171 9173
9171 9174
9171 9175
9172 9173
9172 9174
9172 9175
9172 9176
9173 9174
9173 9175
9173 9176
9173 9177
9174 9175
9174 9176
9174 9177
9174 9178
9175 9176
9175 9177
9175 9178
9175 9179
9176 9177
9176 9178
9176 9179
9176 9918
9177 9178
9177 9179
9177 9180
9177 9181
9178 9179
9178 9180
9178 9181
9178 9182
9179 9180
9179 9181
9179 9182
9179 9183
9180 9181
9180 9182
9180 9184
9181 9182
9181 9185
9182 9183
9182 9185
9182 9186
9183 9184
9183 9185
9183 9186
9183 9187
9184 9185
9184 9186
9184 9187
9184 9188
9185 9186
9185 9187
9185 9188
9185 9189
9186 9187
9186 9188
9186 9189
9186 9190
9187 9188
9187 9189
9187 9191
9188 9189
9188 9191
9188 9192
9189 9190
9189 9192
9189 9193
9190 9191
9190 9192
9190 9194
9191 9192
9191 9193
9191 9194
9191 9195
9192 9193
9192 9194
9192 9196
9192 9846
9193 9194
9193 9195
9193 9196
9193 9197
9194 9195
9194 9198
9195 9196
9195 9197
9195 9198
9195 9199
9196 9197
9196 9198
9196 9199
9196 9200
9197 9198
9197 9199
9197 9200
9197 9201
9198 9199
9198 9200
9198 9201
9198 9202
9199 9200
9199 9201
9199 9202
9199 9203
9200 9201
9200 9202
9200 9203
9200 9204
9201 9203
9201 9204
9201 9205
9202 9203
9202 9204
9202 9205
9202 9206
9203 9204
9203 9205
9203 9206
9203 9207
9204 9205
9204 9206
9204 9207
9204 9208
9205 9206
9205 9207
9205 9208
9205 9209
9206 9207
9206 9208
9206 9209
9206 9210
9207 9208
9207 9209
9207 9210
9207 9211
9208 9209
9208 9210
9209 9210
9209 9212
9209 9213
9210 9211
9210 9212
9210 9213
9210 9214
9211 9212
9211 9214
9211 9215
9212 9213
9212 9214
9212 9215
9213 9214
9213 9215
9213 9216
9213 9217
9214 9215
9214 9216
9214 9217
9214 9218
9215 9217
9215 9218
9215 9219
9216 9217
9216 9218
9216 9219
9216 9220
9217 9218
9217 9219
9217 9220
9217 9221
9217 9735
9218 9219
9218 9221
9218 9222
9219 9220
9219 9221
9219 9222
9219 9223
9220 9221
9220 9222
9220 9223
9220 9224
9221 9222
9221 9223
9221 9224
9221 9225
9222 9223
9222 9224
9222 9225
9222 9226
9223 9224
9223 9225
9223 9226
9223 9227
9224 9225
9224 9227
9224 9228
9225 9226
9225 9227
9225 9228
9225 9229
9226 9227
9226 9228
9226 9229
9226 9230
9226 9714
9227 9229
9227 9230
9228 9229
9228 9230
9228 9231
9228 9232
9229 9230
9229 9231
9229 9232
9229 9233
9230 9231
9230 9232
9230 9233
9230 9234
9231 9232
9231 9233
9231 9234
9231 9235
9232 9233
9232 9234
9232 9236
9233 9234
9233 9235
9233 9236
9233 9237
9234 9235
9234 9236
9234 9237
9235 9237
9235 9238
9235 9239
9236 9238
9236 9239
9236 9240
9237 9238
9237 9240
9237 9241
9238 9239
9238 9240
9238 9242
9238 9859
9239 9240
9239 9242
9240 9241
9240 9242
9240 9243
9240 9244
9241 9242
9241 9243
9241 9244
9241 9245
9242 9243
9242 9245
9242 9246
9243 9244
9243 9245
9243 9246
9243 9247
9244 9245
9244 9246
9244 9248
9245 9246
9245 9247
9245 9248
9245 9249
9246 9247
9246 9248
9246 9249
9247 9248
9247 9249
9247 9250
9247 9251
9248 9249
9248 9250
9248 9251
9248 9252
9249 9250
9249 9251
9249 9252
9249 9253
9250 9251
9250 9252
9250 9253
9250 9254
9251 9252
9251 9254
9251 9255
9252 9253
9252 9254
9252 9255
9252 9256
9253 9254
9253 9255
9253 9256
9253 9257
9254 9255
9254 9258
9255 9256
9255 9257
9255 9258
9255 9259
9256 9257
9256 9258
9256 9259
9256 9260
9257 9258
9257 9259
9257 9260
9257 9261
9258 9259
9258 9260
9258 9261
9259 9260
9259 9261
9259 9262
9259 9263
9260 9261
9260 9262
9260 9263
9260 9264
9261 9262
9261 9264
9261 9265
9262 9263
9262 9264
9262 9265
9262 9266
9263 9264
9263 9265
9263 9266
9263 9267
9264 9265
9264 9266
9264 9267
9265 9266
9265 9267
9265 9268
9265 9269
9266 9267
9266 9268
9266 9269
9266 9270
9267 9268
9267 9269
9267 9270
9267 9271
9268 9269
9268 9270
9268 9271
9268 9272
9269 9270
9269 9271
9269 9272
9269 9273
9270 9271
9270 9272
9270 9273
9270 9274
9271 9272
9271 9273
9271 9274
9271 9275
9272 9273
9272 9274
9272 9275
9272 9276
9273 9274
9273 9275
9273 9276
9273 9277
9274 9275
9274 9276
9274 9278
9274 9393
9275 9276
9275 9277
9275 9279
9276 9277
9276 9278
9276 9279
9276 9280
9277 9278
9277 9279
9277 9280
9277 9281
9278 9279
9278 9280
9278 9281
9279 9280
9279 9281
9279 9282
9279 9283
9280 9282
9280 9283
9280 9284
9281 9282
9281 9284
9281 9285
9282 9283
9282 9284
9282 9285
9282 9286
9283 9285
9283 9286
9283 9287
9284 9286
9284 9287
9284 9288
9285 9286
9285 9287
9285 9288
9285 9289
9286 9287
9286 9288
9286 9289
9286 9290
9287 9288
9287 9289
9287 9290
9287 9291
9288 9289
9288 9290
9288 9291
9288 9292
9289 9290
9289 9291
9289 9292
9289 9293
9290 9291
9290 9292
9290 9293
9290 9294
9291 9292
9291 9293
9291 9294
9291 9295
9292 9294
9292 9295
9292 9296
9292 9715
9293 9294
9293 9295
9293 9296
9293 9297
9294 9295
9294 9296
9294 9297
9294 9298
9295 9296
9295 9297
9295 9298
9295 9299
9296 9297
9296 9299
9296 9300
9297 9298
9297 9300
9297 9301
9298 9299
9298 9300
9299 9300
9299 9301
9299 9302
9299 9303
9300 9301
9300 9302
9300 9303
9301 9303
9301 9304
9301 9305
9301 9684
9302 9303
9302 9305
9302 9306
9303 9304
9303 9305
9303 9306
9303 9307
9304 9305
9304 9306
9304 9307
9304 9308
9305 9306
9305 9307
9305 9308
9305 9309
9306 9307
9306 9309
9306 9310
9307 9308
9307 9309
9307 9310
9307 9622
9308 9310
9308 9311
9308 9312
9309 9310
9309 9311
9309 9312
9309 9313
9310 9311
9310 9312
9310 9313
9310 9314
9311 9312
9311 9313
9311 9314
9311 9315
9312 9313
9312 9314
9312 9316
9313 9314
9313 9315
9313 9317
9314 9316
9314 9318
9315 9317
9315 9318
9315 9319
9316 9317
9316 9318
9316 9319
9316 9320
9317 9318
9317 9319
9317 9320
9317 9321
9318 9319
9318 9322
9319 9320
9319 9321
9319 9322
9319 9323
9320 9321
9320 9322
9320 9323
9320 9324
9321 9322
9321 9323
9321 9324
9322 9323
9322 9324
9322 9325
9322 9326
9323 9325
9323 9326
9323 9327
9324 9325
9324 9326
9324 9327
9324 9328
9325 9326
9325 9327
9325 9328
9325 9329
9326 9327
9326 9328
9326 9329
9326 9330
9327 9328
9327 9329
9327 9330
9327 9331
9328 9329
9328 9330
9328 9331
9328 9332
9329 9330
9329 9331
9329 9332
9330 9332
9330 9333
9330 9334
9331 9332
9331 9333
9331 9335
9332 9333
9332 9334
9332 9335
9332 9336
9333 9334
9333 9335
9333 9337
9334 9336
9334 9337
9334 9338
9335 9336
9335 9337
9335 9338
9335 9339
9336 9337
9336 9338
9336 9339
9336 9340
9337 9338
9337 9339
9337 9340
9337 9341
9337 9859
9338 9339
9338 9340
9338 9341
9338 9342
9339 9340
9339 9341
9339 9342
9339 9343
9340 9341
9340 9342
9340 9343
9340 9344
9341 9343
9341 9344
9341 9345
9342 9344
9343 9344
9343 9345
9343 9346
9343 9347
9344 9345
9344 9346
9344 9347
9344 9348
9345 9346
9345 9347
9345 9348
9345 9349
9346 9347
9346 9348
9346 9349
9346 9350
9347 9348
9347 9350
9347 9351
9348 9349
9348 9351
9348 9352
9349 9350
9349 9351
9349 9352
9349 9353
9350 9351
9350 9352
9350 9353
9350 9354
9351 9352
9351 9353
9351 9354
9351 9355
9352 9353
9352 9354
9352 9355
9352 9356
9353 9354
9353 9355
9353 9356
9353 9357
9354 9355
9354 9357
9355 9356
9355 9357
9355 9358
9355 9359
9356 9357
9356 9358
9356 9359
9356 9360
9357 9358
9357 9359
9357 9360
9357 9361
9358 9359
9358 9360
9358 9361
9358 9362
9359 9360
9359 9361
9359 9362
9359 9363
9360 9361
9360 9363
9360 9364
9361 9362
9361 9363
9361 9364
9361 9365
9362 9363
9362 9364
9362 9365
9363 9364
9363 9365
9363 9366
9364 9365
9364 9366
9364 9367
9364 9368
9365 9366
9365 9367
9365 9368
9365 9369
9366 9367
9366 9368
9366 9369
9366 9370
9367 9368
9367 9369
9367 9370
9367 9371
9368 9369
9368 9370
9368 9372
9369 9370
9369 9371
9370 9371
9370 9372
9370 9373
9370 9374
9371 9372
9371 9373
9371 9374
9371 9375
9372 9373
9372 9374
9372 9375
9372 9376
9373 9375
9373 9376
9373 9377
9374 9375
9374 9376
9374 9377
9374 9378
9375 9376
9375 9377
9375 9379
9376 9378
9376 9379
9376 9380
9377 9378
9377 9379
9377 9380
9377 9381
9378 9379
9378 9380
9378 9381
9378 9382
9379 9380
9379 9381
9379 9382
9379 9383
9380 9381
9380 9382
9380 9383
9380 9384
9381 9382
9381 9383
9381 9384
9381 9385
9382 9383
9382 9384
9382 9385
9382 9386
9383 9385
9383 9386
9383 9387
9383 9394
9384 9385
9384 9387
9384 9388
9385 9386
9385 9387
9385 9388
9386 9387
9386 9389
9386 9390
9387 9388
9387 9389
9387 9390
9387 9391
9388 9389
9388 9390
9388 9391
9388 9392
9389 9390
9389 9391
9389 9392
9389 9393
9390 9391
9390 9393
9391 9392
9391 9393
9391 9394
9391 9395
9392 9393
9392 9394
9392 9395
9392 9396
9393 9394
9393 9395
9393 9396
9394 9395
9394 9397
9394 9398
9395 9396
9395 9397
9395 9398
9395 9399
9396 9397
9396 9398
9396 9400
9397 9398
9397 9399
9397 9400
9397 9401
9398 9400
9398 9401
9398 9402
9399 9400
9399 9401
9399 9402
9399 9403
9400 9401
9400 9403
9400 9404
9401 9402
9401 9404
9401 9405
9402 9404
9402 9405
9402 9406
9403 9404
9403 9405
9403 9406
9403 9407
9404 9405
9404 9407
9404 9408
9405 9406
9405 9407
9405 9408
9405 9409
9406 9407
9406 9409
9406 9410
9407 9408
9407 9409
9407 9410
9407 9411
9407 9525
9408 9409
9408 9410
9408 9411
9408 9412
9409 9411
9409 9412
9409 9413
9410 9411
9410 9414
9411 9413
9411 9414
9411 9415
9411 9667
9412 9413
9412 9414
9412 9415
9412 9416
9413 9414
9413 9415
9413 9416
9413 9417
9413 9932
9414 9415
9414 9416
9414 9417
9414 9418
9415 9416
9415 9417
9415 9418
9415 9419
9416 9417
9416 9418
9417 9418
9417 9419
9417 9420
9417 9421
9418 9419
9418 9420
9418 9421
9418 9422
9419 9421
9419 9422
9419 9423
9420 9421
9420 9422
9420 9423
9420 9424
9421 9422
9421 9423
9421 9424
9421 9425
9422 9423
9422 9424
9422 9425
9422 9426
9423 9424
9423 9425
9423 9426
9423 9427
9424 9426
9424 9427
9424 9428
9424 9936
9425 9426
9425 9428
9425 9429
9426 9427
9426 9428
9426 9429
9426 9430
9427 9429
9427 9430
9427 9431
9428 9429
9428 9430
9428 9431
9428 9432
9429 9430
9429 9431
9429 9432
9429 9433
9430 9431
9430 9432
9430 9433
9430 9434
9431 9432
9431 9433
9431 9434
9431 9435
9432 9433
9432 9434
9432 9435
9433 9435
9433 9436
9433 9437
9433 9759
9434 9435
9434 9436
9434 9437
9434 9438
9435 9436
9435 9437
9435 9438
9435 9439
9436 9437
9436 9438
9436 9440
9437 9438
9437 9439
9437 9441
9438 9439
9438 9440
9438 9441
9438 9442
9439 9440
9439 9441
9439 9443
9440 9442
9440 9443
9440 9444
9441 9442
9441 9443
9441 9444
9441 9445
9442 9443
9442 9444
9442 9445
9442 9446
9443 9444
9443 9445
9443 9447
9444 9445
9444 9446
9444 9448
9445 9446
9445 9447
9445 9448
9445 9449
9446 9447
9446 9448
9446 9449
9446 9450
9447 9448
9447 9449
9447 9451
9448 9449
9448 9450
9448 9451
9448 9452
9449 9450
9449 9451
9449 9453
9450 9451
9450 9452
9450 9453
9450 9454
9451 9452
9451 9453
9451 9455
9452 9453
9452 9454
9452 9455
9452 9456
9453 9454
9453 9455
9453 9456
9453 9457
9454 9455
9454 9456
9454 9457
9454 9458
9455 9457
9455 9458
9455 9459
9456 9457
9456 9458
9456 9459
9456 9460
9457 9458
9457 9459
9457 9460
9457 9461
9458 9459
9458 9460
9458 9461
9459 9460
9459 9461
9459 9462
9459 9463
9459 9713
9460 9461
9460 9462
9460 9463
9460 9523
9461 9462
9461 9463
9461 9464
9461 9465
9462 9463
9462 9464
9462 9466
9463 9464
9463 9465
9463 9466
9463 9467
9464 9465
9464 9466
9464 9467
9465 9466
9465 9468
9465 9469
9466 9467
9466 9468
9466 9469
9466 9470
9467 9468
9467 9469
9467 9470
9468 9469
9468 9470
9468 9471
9468 9472
9469 9470
9469 9471
9469 9472
9469 9473
9470 9471
9470 9472
9470 9473
9470 9474
9471 9472
9471 9473
9471 9474
9471 9475
9472 9474
9472 9475
9472 9476
9473 9474
9473 9475
9473 9476
9473 9477
9474 9475
9474 9476
9474 9477
9475 9476
9475 9478
9475 9479
9476 9477
9476 9478
9476 9479
9476 9480
9477 9478
9477 9479
9477 9480
9477 9481
9478 9479
9478 9480
9478 9481
9479 9480
9479 9481
9479 9482
9479 9483
9480 9481
9480 9482
9480 9483
9480 9484
9481 9482
9481 9483
9481 9484
9481 9485
9482 9483
9482 9484
9482 9485
9482 9486
9483 9484
9483 9485
9483 9486
9483 9487
9484 9486
9484 9487
9484 9488
9485 9486
9485 9487
9485 9488
9485 9489
9486 9487
9486 9488
9486 9489
9487 9488
9487 9490
9487 9491
9488 9490
9488 9491
9488 9492
9489 9490
9489 9491
9489 9492
9489 9493
9490 9491
9490 9492
9490 9493
9490 9494
9491 9492
9491 9493
9491 9494
9491 9495
9492 9493
9492 9494
9492 9495
9492 9496
9493 9494
9493 9495
9493 9496
9494 9495
9494 9496
9494 9497
9494 9498
9495 9497
9495 9498
9495 9499
9496 9497
9496 9498
9496 9499
9496 9500
9496 9843
9497 9498
9497 9499
9497 9500
9497 9501
9498 9499
9498 9500
9498 9501
9498 9502
9499 9500
9499 9501
9499 9503
9500 9501
9500 9502
9500 9503
9500 9504
9501 9502
9501 9505
9502 9503
9502 9504
9502 9505
9502 9506
9503 9504
9503 9505
9503 9506
9503 9507
9504 9506
9504 9507
9504 9508
9505 9506
9505 9508
9505 9509
9506 9507
9506 9508
9506 9509
9506 9510
9507 9508
9507 9509
9507 9510
9507 9511
9508 9509
9508 9510
9508 9511
9508 9512
9509 9510
9509 9511
9509 9512
9509 9513
9510 9512
9510 9513
9510 9514
9511 9512
9511 9513
9511 9514
9512 9513
9512 9514
9512 9515
9513 9514
9513 9515
9513 9516
9513 9517
9514 9515
9514 9516
9514 9518
9515 9516
9515 9518
9515 9519
9516 9517
9516 9518
9516 9519
9516 9520
9517 9518
9517 9519
9517 9520
9517 9521
9518 9520
9518 9521
9518 9522
9519 9520
9519 9521
9519 9522
9519 9523
9520 9521
9520 9522
9520 9523
9520 9524
9521 9522
9521 9523
9521 9524
9521 9525
9522 9523
9522 9524
9522 9526
9523 9524
9523 9525
9523 9526
9523 9527
9524 9525
9524 9526
9524 9527
9524 9528
9525 9527
9525 9528
9525 9529
9526 9527
9526 9528
9526 9530
9526 9907
9527 9528
9527 9530
9527 9531
9528 9529
9528 9530
9528 9531
9528 9532
9529 9530
9529 9532
9529 9533
9530 9531
9530 9532
9530 9533
9530 9534
9531 9533
9531 9534
9531 9535
9531 9681
9532 9533
9532 9534
9532 9535
9532 9536
9533 9534
9533 9535
9533 9536
9533 9537
9534 9535
9534 9536
9534 9537
9535 9536
9535 9537
9535 9538
9536 9539
9536 9540
9537 9538
9537 9539
9537 9541
9538 9539
9538 9540
9538 9541
9538 9542
9539 9541
9539 9542
9539 9543
9540 9541
9540 9542
9540 9543
9540 9544
9541 9542
9541 9543
9541 9544
9541 9545
9542 9543
9542 9544
9542 9545
9542 9546
9543 9545
9543 9546
9543 9547
9544 9545
9544 9546
9544 9547
9544 9548
9545 9546
9545 9547
9545 9548
9545 9549
9546 9547
9546 9548
9546 9549
9546 9550
9547 9549
9547 9550
9547 9551
9548 9549
9548 9550
9548 9551
9548 9552
9549 9550
9549 9551
9549 9552
9549 9553
9550 9551
9550 9552
9550 9553
9550 9554
9551 9552
9551 9553
9551 9554
9551 9555
9552 9555
9552 9556
9553 9554
9553 9555
9553 9557
9554 9555
9554 9556
9554 9557
9554 9558
9555 9556
9555 9557
9555 9559
9556 9557
9556 9558
9556 9559
9556 9560
9557 9558
9557 9559
9557 9560
9557 9561
9558 9559
9558 9560
9558 9561
9558 9562
9559 9560
9559 9562
9559 9563
9560 9561
9560 9563
9560 9564
9561 9562
9561 9563
9561 9564
9562 9563
9562 9565
9562 9566
9563 9564
9563 9565
9563 9566
9563 9567
9564 9565
9564 9566
9564 9567
9564 9568
9565 9566
9565 9567
9565 9568
9565 9569
9566 9567
9566 9568
9566 9569
9566 9570
9567 9568
9567 9569
9567 9570
9568 9569
9568 9570
9568 9571
9568 9572
9569 9570
9569 9571
9569 9572
9569 9573
9570 9571
9570 9572
9570 9573
9570 9574
9571 9572
9571 9573
9571 9574
9571 9575
9572 9573
9572 9574
9572 9575
9572 9576
9573 9574
9573 9575
9573 9576
9573 9577
9574 9575
9574 9576
9574 9577
9574 9578
9575 9576
9575 9577
9575 9578
9575 9579
9576 9577
9576 9578
9576 9579
9576 9580
9577 9578
9577 9579
9577 9580
9577 9581
9578 9580
9579 9580
9579 9581
9579 9582
9579 9583
9580 9581
9580 9583
9580 9584
9581 9582
9581 9583
9581 9584
9581 9585
9582 9583
9582 9584
9582 9585
9582 9586
9583 9584
9583 9585
9583 9586
9583 9587
9584 9585
9584 9586
9584 9587
9584 9588
9585 9586
9585 9587
9585 9588
9585 9589
9586 9587
9586 9588
9586 9589
9586 9590
9587 9588
9587 9589
9587 9590
9587 9591
9588 9589
9588 9590
9588 9591
9588 9592
9589 9590
9589 9591
9589 9592
9589 9593
9590 9591
9590 9592
9590 9594
9591 9592
9591 9593
9592 9593
9592 9594
9592 9595
9593 9594
9593 9595
9593 9596
9593 9597
9594 9595
9594 9596
9594 9597
9594 9598
9595 9596
9595 9597
9595 9598
9596 9597
9596 9598
9596 9599
9596 9600
9597 9598
9597 9599
9597 9600
9597 9601
9598 9599
9598 9600
9598 9601
9598 9602
9599 9600
9599 9603
9600 9602
9600 9603
9600 9604
9601 9602
9601 9603
9601 9604
9601 9605
9602 9603
9602 9604
9602 9605
9603 9605
9603 9606
9603 9607
9604 9605
9604 9607
9604 9608
9605 9606
9605 9607
9605 9608
9605 9609
9606 9607
9606 9608
9606 9609
9607 9608
9607 9609
9607 9610
9607 9611
9608 9609
9608 9610
9608 9611
9608 9612
9609 9610
9609 9611
9609 9612
9609 9613
9610 9611
9610 9612
9610 9613
9610 9614
9611 9612
9611 9613
9611 9614
9611 9615
9612 9613
9612 9614
9612 9615
9612 9616
9613 9614
9613 9615
9613 9616
9613 9617
9614 9615
9614 9616
9614 9617
9614 9618
9615 9616
9615 9617
9615 9618
9615 9619
9616 9617
9616 9618
9616 9619
9616 9620
9617 9618
9617 9619
9617 9620
9617 9621
9618 9619
9618 9620
9618 9621
9618 9622
9619 9620
9619 9621
9619 9623
9620 9621
9620 9623
9620 9624
9621 9622
9621 9624
9622 9624
9622 9625
9622 9626
9623 9624
9623 9625
9623 9626
9623 9627
9624 9625
9624 9626
9624 9627
9624 9628
9625 9626
9625 9627
9625 9628
9625 9629
9626 9627
9626 9629
9626 9630
9627 9628
9627 9629
9627 9631
9627 9703
9628 9630
9628 9631
9628 9632
9629 9630
9629 9631
9629 9632
9629 9633
9630 9632
9630 9633
9630 9634
9631 9633
9631 9634
9631 9635
9632 9633
9632 9634
9632 9635
9633 9636
9633 9637
9634 9635
9634 9636
9634 9637
9634 9638
9635 9636
9635 9637
9635 9639
9636 9638
9636 9639
9636 9640
9637 9638
9637 9639
9637 9640
9637 9641
9638 9639
9638 9640
9638 9641
9638 9642
9639 9640
9639 9641
9639 9642
9639 9643
9640 9641
9640 9642
9640 9643
9640 9644
9641 9642
9641 9643
9641 9645
9642 9643
9642 9646
9643 9644
9643 9645
9643 9647
9644 9645
9644 9646
9644 9647
9644 9648
9645 9646
9645 9647
9645 9649
9646 9647
9646 9649
9646 9650
9647 9648
9647 9649
9647 9650
9647 9651
9648 9649
9648 9650
9648 9651
9648 9652
9649 9650
9649 9651
9649 9652
9649 9653
9650 9651
9650 9652
9650 9653
9650 9654
9651 9652
9651 9653
9651 9655
9652 9653
9652 9654
9652 9655
9652 9656
9653 9654
9653 9655
9653 9656
9653 9657
9654 9655
9654 9656
9654 9657
9654 9658
9655 9656
9655 9657
9655 9658
9655 9659
9656 9657
9656 9658
9656 9659
9656 9660
9657 9658
9657 9659
9657 9660
9657 9661
9658 9659
9658 9660
9658 9661
9658 9662
9659 9660
9659 9661
9659 9662
9659 9663
9660 9662
9660 9663
9660 9664
9661 9662
9661 9664
9662 9664
9662 9665
9662 9666
9663 9664
9663 9665
9663 9666
9663 9667
9664 9665
9664 9666
9664 9667
9665 9666
9665 9668
9665 9669
9666 9668
9666 9669
9666 9670
9667 9668
9667 9669
9667 9670
9667 9671
9668 9669
9668 9670
9668 9671
9668 9672
9669 9670
9669 9671
9669 9672
9669 9673
9670 9671
9670 9672
9670 9673
9670 9674
9671 9672
9671 9673
9671 9674
9672 9673
9672 9674
9672 9675
9672 9676
9673 9674
9673 9675
9673 9676
9673 9677
9674 9675
9674 9676
9675 9676
9675 9677
9675 9678
9675 9679
9676 9677
9676 9678
9676 9679
9676 9680
9677 9678
9677 9679
9677 9680
9677 9681
9678 9679
9678 9680
9678 9681
9678 9682
9679 9680
9679 9681
9679 9683
9679 9688
9680 9681
9680 9682
9680 9684
9681 9682
9681 9683
9681 9684
9681 9685
9682 9683
9682 9685
9682 9686
9683 9684
9683 9685
9683 9686
9684 9685
9684 9686
9685 9686
9685 9687
9685 9689
9686 9687
9686 9688
9686 9689
9687 9688
9687 9689
9687 9690
9687 9691
9688 9689
9688 9691
9688 9692
9689 9690
9689 9692
9689 9693
9690 9691
9690 9692
9690 9693
9690 9694
9691 9692
9691 9694
9691 9695
9692 9693
9692 9694
9692 9695
9692 9696
9693 9694
9693 9696
9693 9697
9694 9696
9694 9698
9695 9696
9695 9697
9695 9698
9695 9699
9696 9698
9696 9699
9696 9700
9697 9698
9697 9699
9697 9700
9697 9701
9697 9915
9698 9699
9698 9700
9698 9701
9698 9702
9699 9700
9699 9701
9699 9702
9699 9703
9700 9702
9700 9703
9701 9702
9701 9703
9701 9704
9701 9705
9702 9703
9702 9704
9702 9705
9702 9706
9702 9717
9703 9704
9703 9705
9703 9706
9703 9707
9704 9705
9704 9706
9704 9707
9705 9706
9705 9707
9705 9708
9705 9709
9706 9707
9706 9708
9706 9709
9706 9710
9707 9708
9707 9709
9707 9710
9707 9711
9708 9709
9708 9710
9708 9711
9708 9712
9709 9711
9709 9712
9709 9713
9710 9711
9710 9712
9710 9713
9710 9714
9711 9712
9711 9713
9711 9714
9711 9715
9712 9713
9712 9714
9712 9715
9713 9715
9713 9716
9713 9717
9714 9716
9714 9717
9714 9718
9715 9716
9715 9717
9715 9718
9715 9719
9716 9717
9716 9718
9716 9719
9716 9720
9717 9719
9717 9720
9717 9721
9718 9719
9718 9721
9718 9722
9719 9720
9719 9721
9719 9722
9719 9723
9720 9721
9720 9722
9720 9723
9720 9724
9721 9722
9721 9723
9721 9724
9721 9725
9722 9723
9722 9724
9722 9725
9722 9726
9723 9724
9723 9725
9723 9726
9723 9727
9723 9781
9724 9725
9724 9726
9724 9727
9724 9728
9725 9726
9725 9728
9726 9727
9726 9728
9726 9729
9726 9730
9727 9728
9727 9729
9727 9730
9727 9731
9728 9729
9728 9730
9728 9731
9729 9730
9729 9731
9729 9732
9729 9733
9730 9731
9730 9732
9730 9733
9730 9734
9731 9732
9731 9733
9731 9734
9731 9735
9732 9733
9732 9734
9732 9735
9732 9736
9733 9734
9733 9735
9733 9736
9733 9737
9734 9735
9734 9736
9734 9737
9734 9738
9735 9736
9735 9737
9735 9738
9736 9737
9736 9738
9736 9739
9736 9740
9737 9738
9737 9739
9737 9740
9737 9741
9738 9739
9738 9740
9738 9741
9738 9742
9739 9740
9739 9741
9739 9742
9739 9743
9740 9741
9740 9742
9740 9743
9740 9744
9741 9742
9741 9743
9741 9744
9741 9745
9742 9743
9742 9744
9743 9744
9743 9745
9743 9746
9743 9747
9744 9746
9744 9748
9745 9746
9745 9747
9745 9748
9745 9749
9746 9747
9746 9748
9746 9749
9747 9748
9747 9749
9747 9750
9747 9751
9748 9749
9748 9750
9748 9751
9749 9750
9749 9751
9749 9752
9749 9753
9750 9751
9750 9752
9750 9753
9750 9754
9751 9752
9751 9753
9751 9754
9751 9755
9752 9753
9752 9754
9752 9755
9752 9756
9753 9754
9753 9755
9753 9756
9753 9757
9754 9755
9754 9756
9754 9757
9754 9758
9755 9756
9755 9757
9755 9758
9755 9759
9756 9757
9756 9758
9756 9759
9756 9760
9757 9758
9757 9759
9757 9760
9757 9761
9758 9759
9758 9760
9758 9761
9758 9762
9759 9760
9759 9761
9759 9762
9759 9763
9760 9761
9760 9762
9760 9763
9760 9764
9761 9762
9761 9763
9761 9764
9761 9765
9762 9764
9762 9765
9762 9766
9763 9764
9763 9765
9763 9766
9764 9765
9764 9766
9764 9768
9764 9829
9765 9766
9765 9767
9765 9768
9765 9769
9766 9767
9766 9768
9766 9769
9766 9770
9767 9768
9767 9769
9767 9770
9767 9771
9768 9769
9768 9770
9768 9771
9768 9772
9769 9770
9769 9771
9769 9772
9769 9773
9770 9771
9770 9772
9770 9773
9770 9774
9771 9772
9771 9773
9771 9774
9771 9775
9772 9773
9772 9774
9772 9775
9772 9776
9773 9775
9773 9776
9774 9775
9774 9776
9774 9777
9774 9778
9775 9776
9775 9777
9775 9778
9775 9779
9776 9777
9776 9778
9776 9779
9776 9780
9777 9778
9777 9779
9777 9780
9777 9781
9778 9779
9778 9780
9778 9781
9778 9782
9779 9780
9779 9781
9779 9782
9779 9783
9780 9781
9780 9782
9780 9783
9780 9784
9781 9783
9781 9784
9781 9785
9782 9784
9782 9785
9782 9786
9783 9784
9783 9785
9783 9786
9783 9787
9784 9785
9784 9786
9784 9787
9785 9786
9785 9787
9785 9788
9785 9789
9786 9787
9786 9788
9786 9789
9786 9790
9787 9788
9787 9791
9788 9789
9788 9790
9788 9791
9788 9792
9789 9790
9789 9791
9789 9792
9789 9793
9790 9791
9790 9792
9790 9793
9790 9794
9791 9792
9791 9793
9791 9794
9792 9793
9792 9795
9792 9796
9793 9794
9793 9795
9793 9796
9793 9797
9794 9795
9794 9796
9794 9797
9794 9798
9795 9796
9795 9797
9795 9798
9796 9797
9796 9798
9796 9799
9796 9800
9797 9798
9797 9799
9797 9800
9797 9801
9798 9800
9798 9801
9798 9802
9799 9800
9799 9801
9799 9802
9799 9803
9800 9802
9800 9803
9800 9804
9801 9802
9801 9803
9801 9805
9802 9803
9802 9804
9802 9805
9802 9806
9803 9804
9803 9805
9803 9806
9803 9807
9804 9805
9804 9806
9804 9807
9804 9808
9805 9806
9805 9807
9805 9809
9806 9808
9806 9809
9807 9808
9807 9809
9807 9811
9808 9809
9808 9811
9808 9812
9809 9810
9809 9811
9809 9812
9809 9813
9810 9811
9810 9812
9810 9813
9810 9814
9811 9812
9811 9814
9811 9815
9812 9813
9812 9814
9812 9816
9813 9815
9813 9816
9813 9817
9814 9816
9814 9817
9814 9818
9815 9816
9815 9817
9815 9818
9815 9819
9816 9817
9816 9818
9816 9819
9817 9818
9817 9819
9817 9820
9817 9821
9818 9819
9818 9820
9818 9821
9818 9822
9819 9820
9819 9821
9819 9822
9819 9823
9820 9821
9820 9823
9820 9824
9821 9822
9821 9823
9821 9824
9821 9825
9822 9823
9822 9824
9822 9825
9822 9826
9823 9824
9823 9825
9823 9827
9824 9825
9824 9826
9824 9827
9824 9828
9825 9826
9825 9827
9825 9828
9825 9829
9826 9827
9826 9828
9826 9829
9826 9830
9827 9828
9827 9829
9827 9830
9827 9831
9828 9829
9828 9831
9828 9832
9829 9830
9829 9831
9829 9832
9829 9833
9830 9831
9830 9832
9830 9833
9830 9834
9831 9832
9831 9833
9831 9834
9831 9835
9832 9833
9832 9834
9832 9835
9832 9836
9833 9834
9833 9835
9833 9837
9834 9835
9834 9836
9834 9837
9834 9838
9835 9836
9835 9837
9835 9838
9835 9839
9836 9837
9836 9838
9836 9839
9836 9840
9837 9838
9837 9839
9837 9840
9837 9841
9838 9839
9838 9840
9838 9841
9838 9842
9839 9840
9839 9841
9839 9842
9839 9843
9840 9841
9840 9842
9840 9843
9840 9844
9841 9842
9841 9843
9841 9844
9842 9843
9842 9844
9842 9845
9842 9846
9843 9844
9843 9846
9843 9847
9844 9845
9844 9846
9844 9847
9844 9848
9845 9846
9845 9847
9845 9848
9846 9848
9846 9849
9846 9850
9847 9848
9847 9849
9847 9850
9847 9851
9848 9850
9848 9851
9849 9850
9849 9851
9850 9852
9850 9853
9850 9854
9850 9923
9851 9852
9851 9853
9851 9854
9851 9855
9852 9853
9852 9854
9852 9855
9852 9856
9853 9854
9853 9855
9853 9856
9853 9857
9854 9855
9854 9856
9854 9857
9854 9858
9855 9856
9855 9858
9855 9859
9856 9857
9856 9858
9856 9860
9857 9858
9857 9859
9857 9860
9857 9861
9858 9859
9858 9860
9858 9861
9858 9862
9859 9860
9859 9861
9859 9863
9860 9861
9860 9862
9860 9863
9860 9864
9861 9862
9861 9863
9861 9864
9861 9865
9862 9863
9862 9864
9862 9865
9862 9866
9863 9864
9863 9865
9863 9866
9863 9867
9864 9865
9864 9866
9864 9867
9864 9868
9865 9866
9865 9868
9865 9869
9866 9867
9866 9868
9866 9869
9866 9870
9867 9868
9867 9869
9867 9870
9867 9871
9868 9869
9868 9871
9868 9872
9869 9870
9869 9871
9869 9872
9869 9873
9870 9871
9870 9872
9870 9873
9870 9874
9871 9872
9871 9873
9871 9874
9871 9875
9872 9873
9872 9874
9872 9875
9872 9876
9873 9874
9873 9875
9873 9876
9873 9877
9874 9875
9874 9876
9874 9877
9874 9878
9875 9876
9875 9878
9875 9879
9876 9877
9876 9878
9876 9879
9876 9880
9877 9878
9877 9881
9878 9879
9878 9880
9878 9881
9878 9882
9879 9880
9879 9881
9879 9882
9879 9883
9880 9882
9880 9883
9880 9884
9881 9883
9881 9885
9882 9883
9882 9884
9882 9885
9882 9886
9883 9884
9883 9885
9883 9886
9883 9887
9884 9885
9884 9887
9884 9888
9885 9886
9885 9887
9885 9888
9885 9889
9886 9887
9886 9888
9886 9889
9886 9890
9887 9888
9887 9889
9887 9890
9887 9891
9888 9889
9888 9890
9888 9891
9888 9892
9889 9891
9889 9893
9890 9891
9890 9892
9890 9894
9891 9892
9891 9893
9891 9895
9892 9893
9892 9894
9892 9895
9892 9896
9893 9894
9893 9895
9893 9896
9893 9897
9894 9895
9894 9896
9894 9897
9894 9898
9895 9896
9895 9898
9895 9899
9896 9897
9896 9898
9896 9899
9896 9900
9897 9898
9897 9899
9897 9900
9897 9901
9898 9899
9898 9900
9898 9901
9898 9902
9899 9901
9899 9903
9900 9901
9900 9902
9900 9904
9901 9902
9901 9903
9901 9904
9901 9905
9902 9903
9902 9904
9902 9905
9902 9906
9903 9904
9903 9905
9903 9906
9903 9907
9904 9905
9904 9906
9904 9907
9904 9908
9905 9906
9905 9907
9905 9908
9905 9909
9906 9907
9906 9908
9906 9910
9907 9908
9907 9909
9907 9910
9907 9911
9908 9910
9908 9911
9908 9912
9909 9910
9909 9911
9909 9912
9909 9913
9910 9911
9910 9913
9910 9914
9911 9912
9911 9913
9911 9914
9911 9915
9912 9913
9912 9914
9912 9915
9912 9916
9913 9914
9913 9915
9913 9916
9913 9917
9914 9915
9914 9916
9914 9917
9914 9918
9915 9916
9915 9917
9915 9918
9916 9917
9916 9918
9916 9919
9916 9920
9917 9918
9917 9919
9917 9920
9917 9921
9918 9919
9918 9920
9918 9921
9918 9922
9919 9920
9919 9921
9919 9922
9919 9923
9920 9922
9920 9923
9920 9924
9921 9922
9921 9923
9921 9924
9921 9925
9922 9923
9922 9924
9922 9925
9923 9924
9923 9925
9923 9926
9923 9927
9924 9925
9924 9926
9924 9927
9925 9926
9925 9928
9926 9927
9926 9928
9926 9929
9926 9930
9927 9928
9927 9929
9927 9930
9928 9929
9928 9930
9928 9931
9928 9932
9929 9931
9929 9932
9929 9933
9930 9931
9930 9932
9930 9933
9930 9934
9931 9932
9931 9933
9931 9934
9931 9935
9932 9934
9932 9935
9932 9936
9933 9934
9933 9935
9933 9936
9933 9937
9934 9935
9934 9936
9934 9937
9934 9938
9935 9937
9935 9938
9935 9939
9936 9938
9936 9939
9936 9940
9937 9938
9937 9939
9937 9940
9937 9941
9938 9939
9938 9940
9938 9941
9938 9942
9939 9940
9939 9941
9939 9942
9939 9943
9940 9941
9940 9942
9940 9943
9940 9944
9941 9943
9942 9944
9942 9945
9942 9946
9943 9944
9943 9945
9943 9946
9943 9947
9944 9945
9944 9946
9944 9947
9945 9946
9945 9947
9945 9948
9945 9949
9946 9947
9946 9948
9946 9949
9946 9950
9947 9948
9947 9949
9947 9950
9947 9951
9948 9949
9948 9950
9948 9951
9948 9952
9949 9950
9949 9951
9949 9952
9949 9953
9950 9951
9950 9952
9950 9953
9950 9954
9951 9953
9951 9954
9951 9955
9952 9953
9952 9954
9952 9955
9952 9956
9953 9954
9953 9956
9953 9957
9954 9955
9954 9956
9954 9957
9954 9958
9955 9956
9955 9957
9955 9958
9955 9959
9956 9957
9956 9958
9956 9959
9956 9960
9957 9958
9957 9959
9957 9960
9957 9961
9958 9959
9958 9960
9958 9961
9958 9962
9959 9961
9959 9962
9959 9963
9960 9963
9960 9964
9961 9962
9961 9963
9961 9965
9962 9963
9962 9964
9962 9965
9963 9964
9963 9965
9963 9966
9963 9967
9964 9965
9964 9966
9964 9967
9964 9968
9965 9966
9965 9967
9965 9968
9965 9969
9966 9967
9966 9969
9966 9970
9967 9969
9967 9970
9968 9969
9968 9970
9968 9971
9968 9972
9969 9970
9969 9971
9969 9972
9969 9973
9970 9971
9970 9972
9970 9973
9970 9974
9971 9972
9971 9973
9971 9974
9971 9975
9972 9973
9972 9974
9972 9975
9972 9976
9973 9974
9973 9975
9973 9976
9973 9977
9974 9975
9974 9976
9974 9978
9975 9976
9975 9977
9975 9978
9975 9979
9976 9977
9976 9978
9976 9980
9977 9978
9977 9979
9977 9980
9977 9981
9978 9979
9978 9980
9978 9981
9978 9982
9979 9980
9979 9981
9979 9982
9979 9983
9980 9981
9980 9983
9980 9984
9981 9982
9981 9983
9981 9984
9981 9985
9982 9983
9982 9984
9982 9985
9982 9986
9983 9984
9983 9985
9983 9986
9983 9987
9984 9985
9984 9986
9984 9987
9984 9988
9985 9986
9985 9987
9985 9988
9985 9989
9986 9987
9986 9988
9986 9989
9986 9990
9987 9988
9987 9991
9988 9989
9988 9990
9988 9991
9988 9992
9989 9990
9989 9991
9989 9992
9989 9993
9990 9991
9990 9992
9990 9993
9990 9994
9991 9992
9991 9993
9991 9994
9991 9995
9992 9993
9992 9994
9992 9995
9992 9996
9993 9994
9993 9995
9993 9996
9993 9997
9994 9995
9994 9996
9994 9997
9994 9998
9995 9997
9995 9998
9995 9999
9996 9997
9996 9999
9997 9998
9997 9999
9998 9999
